x [mm];y [mm];z [mm];X-displacement [mm];Y-displacement [mm];Z-displacement [mm];Displacement [mm];Exx [S];Eyy [S];Exy [S];Poisson's ratio -strain min/max;Poisson's ratio -Exx/Eyy;Poisson's ratio -Eyy/Exx;Poisson's ratio -strain max/min;Maximum principal strain [S];Minimum principal strain [S];Maximum shear strain [S];Maximum shear angle [°];Maximum strain angle [°];Tresca strain [S];Von Mises strain [S];du/dx [S];du/dy [S];dv/dx [S];dv/dy [S];Vorticity-z [S];Height [mm];du/dx+dv/dy [S];Div-xy [S];Stereo reconstruction error [pixel]
-44.085126;48.635426;-14.030656;0;0;0;0;2.220446e-16;0;3.824913e-17;0;0;0;0;2.284487e-16;-6.404048e-18;1.174263e-16;45;0;1.565685e-16;1.54478e-16;2.220446e-16;7.649827e-17;0;0;-7.649827e-17;-14.030656;2.220446e-16;-2.220446e-16;0
-10.212419;48.635426;5.648323;0;0;0;0;0;-4.440892e-16;3.620692e-17;0;0;0;0;2.932611e-18;-4.470218e-16;2.249772e-16;45;0;2.999696e-16;2.989969e-16;0;0;7.241384e-17;-4.440892e-16;7.241384e-17;5.649379;-4.440892e-16;4.440892e-16;0
-8.599433;48.635426;5.967865;0;0;0;0;2.220446e-16;0;-3.094447e-17;0;0;0;0;2.262764e-16;-4.231817e-18;1.152541e-16;45;0;1.536722e-16;1.522812e-16;2.220446e-16;-6.188895e-17;0;0;6.188895e-17;5.971529;2.220446e-16;-2.220446e-16;0
-6.986447;48.635426;6.298398;0;0;0;0;-1.110223e-16;2.220446e-16;7.76564e-21;0;0;0;0;2.220446e-16;-1.110223e-16;1.665335e-16;45;0;2.220446e-16;1.958249e-16;-1.110223e-16;1.553128e-20;0;2.220446e-16;-1.553128e-20;6.285654;1.110223e-16;-1.110223e-16;0
-5.373461;48.635426;6.590698;0;0;0;0;-1.110223e-16;0;1.743156e-19;0;0;0;0;2.736914e-22;-1.110226e-16;5.551142e-17;45;0;7.401523e-17;7.401514e-17;-1.110223e-16;3.486312e-19;0;0;-3.486312e-19;6.572166;-1.110223e-16;1.110223e-16;0
-3.760475;48.635426;6.827401;0;0;0;0;0;0;3.079442e-17;0;0;0;0;3.079442e-17;-3.079442e-17;3.079442e-17;45;0;4.105922e-17;3.555833e-17;0;6.158883e-17;0;0;-6.158883e-17;6.808166;0;0;0
-2.147489;48.635426;7.0064;0;0;0;0;0;0;-3.066216e-17;0;0;0;0;3.066216e-17;-3.066216e-17;3.066216e-17;45;0;4.088289e-17;3.540562e-17;0;-6.132433e-17;0;0;6.132433e-17;6.997879;0;0;0
-0.534503;48.635426;7.159835;0;0;0;0;-1.110223e-16;2.220446e-16;3.065074e-17;0;0;0;0;2.248418e-16;-1.138195e-16;1.693306e-16;45;0;2.257742e-16;1.989976e-16;-1.110223e-16;6.114729e-17;1.54199e-19;2.220446e-16;-6.099309e-17;7.116189;1.110223e-16;-1.110223e-16;0
1.078483;48.635426;7.182332;0;0;0;0;2.220446e-16;-2.220446e-16;3.071024e-17;0;0;0;0;2.241583e-16;-2.241583e-16;2.241583e-16;45;0;2.988777e-16;2.588357e-16;2.220446e-16;6.134329e-17;7.719454e-20;-2.220446e-16;-6.126609e-17;7.136544;0;0;0
2.691469;48.635426;7.067467;0;0;0;0;2.220446e-16;-2.220446e-16;-1.763418e-19;0;0;0;0;2.220447e-16;-2.220447e-16;2.220447e-16;45;0;2.960596e-16;2.563951e-16;2.220446e-16;-5.068523e-19;1.541687e-19;-2.220446e-16;6.61021e-19;7.080309;0;0;0
4.304455;48.635426;6.99113;0;0;0;0;-1.110223e-16;-2.220446e-16;3.305926e-19;0;0;0;0;-1.110213e-16;-2.220456e-16;5.551214e-17;45;0;7.401618e-17;1.281981e-16;-1.110223e-16;5.068581e-19;1.54327e-19;-2.220446e-16;-3.525311e-19;6.996436;-3.330669e-16;3.330669e-16;0
5.917441;48.635426;6.930713;0;0;0;0;0;-2.220446e-16;5.637207e-20;0;0;0;0;1.431158e-23;-2.220446e-16;1.110223e-16;45;0;1.480298e-16;1.480298e-16;0;-4.155352e-20;1.542977e-19;-2.220446e-16;1.958512e-19;6.920896;-2.220446e-16;2.220446e-16;0
7.530427;48.635426;6.840846;0;0;0;0;0;0;0;0;0;0;0;0;0;0;45;0;0;0;0;0;0;0;0;6.823155;0;0;0
9.143413;48.635426;6.697908;0;0;0;0;0;2.220446e-16;3.036603e-17;0;0;0;0;2.261225e-16;-4.077859e-18;1.151002e-16;45;0;1.534669e-16;1.521258e-16;0;6.103932e-17;-3.072645e-19;2.220446e-16;-6.134658e-17;6.683104;2.220446e-16;-2.220446e-16;0
10.756399;48.635426;6.510559;0;0;0;0;0;0;-6.176703e-17;0;0;0;0;6.176703e-17;-6.176703e-17;6.176703e-17;45;0;8.235603e-17;7.132242e-17;0;-1.235341e-16;0;0;1.235341e-16;6.49755;0;0;0
12.369385;48.635426;6.284183;0;0;0;0;-1.110223e-16;-2.220446e-16;5.764487e-19;0;0;0;0;-1.110193e-16;-2.220476e-16;5.551414e-17;45;0;7.401886e-17;1.281992e-16;-1.110223e-16;8.475567e-19;3.053408e-19;-2.220446e-16;-5.422159e-19;6.270171;-3.330669e-16;3.330669e-16;0
13.982371;48.635426;6.015772;0;0;0;0;-1.110223e-16;0;3.12033e-17;0;0;0;0;8.168782e-18;-1.191911e-16;6.367993e-17;45;0;8.490658e-17;8.231886e-17;-1.110223e-16;6.24066e-17;0;0;-6.24066e-17;6.001639;-1.110223e-16;1.110223e-16;0
15.595357;48.635426;5.704962;0;0;0;0;0;0;-6.152341e-17;0;0;0;0;6.152341e-17;-6.152341e-17;6.152341e-17;45;0;8.203122e-17;7.104112e-17;0;-1.230468e-16;0;0;1.230468e-16;5.691118;0;0;0
17.208343;48.635426;5.352622;0;0;0;0;0;-2.220446e-16;1.502164e-19;0;0;0;0;1.016235e-22;-2.220447e-16;1.110224e-16;45;0;1.480299e-16;1.480298e-16;0;0;3.004328e-19;-2.220446e-16;3.004328e-19;5.331031;-2.220446e-16;2.220446e-16;0
18.821329;48.635426;4.935508;0;0;0;0;-1.110223e-16;0;-3.025941e-17;0;0;0;0;7.71163e-18;-1.187339e-16;6.322278e-17;45;0;8.429704e-17;8.184769e-17;-1.110223e-16;-6.051883e-17;0;0;6.051883e-17;4.920787;-1.110223e-16;1.110223e-16;0
20.434315;48.635426;4.474229;0;0;0;0;2.220446e-16;-2.220446e-16;3.066363e-17;0;0;0;0;2.241519e-16;-2.241519e-16;2.241519e-16;45;0;2.988692e-16;2.588283e-16;2.220446e-16;6.103134e-17;2.95914e-19;-2.220446e-16;-6.073543e-17;4.462106;0;0;0
22.047301;48.635426;3.976582;0;0;0;0;2.220446e-16;-2.220446e-16;-5.011335e-20;0;0;0;0;2.220446e-16;-2.220446e-16;2.220446e-16;45;0;2.960595e-16;2.56395e-16;2.220446e-16;-3.113973e-19;2.111706e-19;-2.220446e-16;5.225679e-19;3.962173;0;0;0
23.660287;48.635426;3.435706;0;0;0;0;0;-2.220446e-16;-3.064899e-17;0;0;0;0;4.152835e-18;-2.261974e-16;1.151751e-16;45;0;1.535668e-16;1.522015e-16;0;-6.158896e-17;2.909807e-19;-2.220446e-16;6.187995e-17;3.414522;-2.220446e-16;2.220446e-16;0
25.273273;48.635426;2.831278;0;0;0;0;0;2.220446e-16;0;0;0;0;0;2.220446e-16;0;1.110223e-16;45;0;1.480297e-16;1.480297e-16;0;0;0;2.220446e-16;0;2.816021;2.220446e-16;-2.220446e-16;0
26.886259;48.635426;2.18108;0;0;0;0;0;-2.220446e-16;0;0;0;0;0;0;-2.220446e-16;1.110223e-16;45;0;1.480297e-16;1.480297e-16;0;0;0;-2.220446e-16;0;2.159059;-2.220446e-16;2.220446e-16;0
28.499246;48.635426;1.464819;0;0;0;0;-2.220446e-16;0;-6.627413e-17;0;0;0;0;1.827662e-17;-2.403212e-16;1.292989e-16;45;0;1.723986e-16;1.666408e-16;-2.220446e-16;-1.325483e-16;0;0;1.325483e-16;1.453373;-2.220446e-16;2.220446e-16;0
-44.085126;47.02244;-14.092548;0;0;0;0;-1.110223e-16;2.220446e-16;2.011133e-17;0;0;0;0;2.232546e-16;-1.122323e-16;1.677434e-16;45;0;2.236579e-16;1.971971e-16;-1.110223e-16;2.249819e-18;3.797284e-17;2.220446e-16;3.572302e-17;-14.104589;1.110223e-16;-1.110223e-16;0
-42.47214;47.02244;-12.324515;0;0;0;0;-2.220446e-16;0;-1.123551e-17;0;0;0;0;5.670709e-19;-2.226117e-16;1.115894e-16;45;0;1.487858e-16;1.485972e-16;-2.220446e-16;-2.247101e-17;0;0;2.247101e-17;-12.368382;-2.220446e-16;2.220446e-16;0
-40.859154;47.02244;-10.655982;0;0;0;0;0;2.220446e-16;0;0;0;0;0;2.220446e-16;0;1.110223e-16;45;0;1.480297e-16;1.480297e-16;0;0;0;2.220446e-16;0;-10.699616;2.220446e-16;-2.220446e-16;0
-39.246168;47.02244;-9.118349;0;0;0;0;2.220446e-16;0;-3.248878e-17;0;0;0;0;2.267006e-16;-4.656011e-18;1.156783e-16;45;0;1.542378e-16;1.527094e-16;2.220446e-16;-6.497756e-17;0;0;6.497756e-17;-9.150671;2.220446e-16;-2.220446e-16;0
-37.633182;47.02244;-7.677683;0;0;0;0;2.220446e-16;-2.220446e-16;8.753095e-19;0;0;0;0;2.220463e-16;-2.220463e-16;2.220463e-16;45;0;2.960618e-16;2.56397e-16;2.220446e-16;-1.189678e-19;1.869587e-18;-2.220446e-16;1.988555e-18;-7.710332;0;0;0
-36.020196;47.02244;-6.334964;0;0;0;0;2.220446e-16;0;-4.053753e-18;0;0;0;0;2.221186e-16;-7.398261e-20;1.110963e-16;45;0;1.481284e-16;1.481037e-16;2.220446e-16;-8.107506e-18;0;0;8.107506e-18;-6.366743;2.220446e-16;-2.220446e-16;0
-34.40721;47.02244;-5.087583;0;0;0;0;0;0;0;0;0;0;0;0;0;0;45;0;0;0;0;0;0;0;0;-5.116852;0;0;0
-32.794224;47.02244;-3.928009;0;0;0;0;0;0;0;0;0;0;0;0;0;0;45;0;0;0;0;0;0;0;0;-3.958423;0;0;0
-31.181238;47.02244;-2.859678;0;0;0;0;-1.110223e-16;0;0;0;0;0;0;0;-1.110223e-16;5.551115e-17;45;0;7.401487e-17;7.401487e-17;-1.110223e-16;0;0;0;0;-2.880015;-1.110223e-16;1.110223e-16;0
-29.568251;47.02244;-1.852359;0;0;0;0;0;2.220446e-16;0;0;0;0;0;2.220446e-16;0;1.110223e-16;45;0;1.480297e-16;1.480297e-16;0;0;0;2.220446e-16;0;-1.879099;2.220446e-16;-2.220446e-16;0
-27.955265;47.02244;-0.925261;0;0;0;0;-1.110223e-16;0;2.976228e-17;0;0;0;0;7.475206e-18;-1.184975e-16;6.298636e-17;45;0;8.398181e-17;8.160428e-17;-1.110223e-16;5.952456e-17;0;0;-5.952456e-17;-0.945613;-1.110223e-16;1.110223e-16;0
-26.342279;47.02244;-0.059218;0;0;0;0;2.220446e-16;-2.220446e-16;-2.975402e-17;0;0;0;0;2.240293e-16;-2.240293e-16;2.240293e-16;45;0;2.987057e-16;2.586867e-16;2.220446e-16;-5.950805e-17;0;-2.220446e-16;5.950805e-17;-0.074118;0;0;0
-24.729293;47.02244;0.762126;0;0;0;0;2.220446e-16;0;-2.719033e-18;0;0;0;0;2.220779e-16;-3.329076e-20;1.110556e-16;45;0;1.480741e-16;1.48063e-16;2.220446e-16;-5.438066e-18;0;0;5.438066e-18;0.735181;2.220446e-16;-2.220446e-16;0
-23.116307;47.02244;1.502635;0;0;0;0;0;0;0;0;0;0;0;0;0;0;45;0;0;0;0;0;0;0;0;1.485109;0;0;0
-21.503321;47.02244;2.190565;0;0;0;0;2.220446e-16;2.220446e-16;-3.292146e-17;0;0;0;0;2.54966e-16;1.891231e-16;3.292146e-17;45;0;4.389528e-17;1.528329e-16;2.220446e-16;-6.356287e-17;-2.280038e-18;2.220446e-16;6.128284e-17;2.178983;4.440892e-16;-4.440892e-16;0
-19.890335;47.02244;2.84375;0;0;0;0;-1.110223e-16;2.220446e-16;3.188162e-17;0;0;0;0;2.250689e-16;-1.140466e-16;1.695577e-16;45;0;2.26077e-16;1.992552e-16;-1.110223e-16;6.491446e-17;-1.15122e-18;2.220446e-16;-6.606568e-17;2.82521;1.110223e-16;-1.110223e-16;0
-18.277349;47.02244;3.441314;0;0;0;0;0;2.220446e-16;8.249434e-20;0;0;0;0;2.220446e-16;-3.064841e-23;1.110223e-16;45;0;1.480298e-16;1.480298e-16;0;1.331635e-18;-1.166646e-18;2.220446e-16;-2.498281e-18;3.41763;2.220446e-16;-2.220446e-16;0
-16.664363;47.02244;3.967824;0;0;0;0;-1.110223e-16;0;1.361111e-18;0;0;0;0;1.668444e-20;-1.11039e-16;5.552783e-17;45;0;7.403711e-17;7.403155e-17;-1.110223e-16;2.722222e-18;0;0;-2.722222e-18;3.952471;-1.110223e-16;1.110223e-16;0
-15.051377;47.02244;4.448274;0;0;0;0;2.220446e-16;0;-1.360543e-18;0;0;0;0;2.220529e-16;-8.336198e-21;1.110306e-16;45;0;1.480408e-16;1.480381e-16;2.220446e-16;-2.721086e-18;0;0;2.721086e-18;4.439344;2.220446e-16;-2.220446e-16;0
-13.438391;47.02244;4.901933;0;0;0;0;-1.110223e-16;2.220446e-16;3.115964e-17;0;0;0;0;2.249346e-16;-1.139123e-16;1.694235e-16;45;0;2.25898e-16;1.991029e-16;-1.110223e-16;6.3516e-17;-1.196721e-18;2.220446e-16;-6.471272e-17;4.87681;1.110223e-16;-1.110223e-16;0
-11.825405;47.02244;5.280222;0;0;0;0;0;-2.220446e-16;2.087609e-17;0;0;0;0;1.945671e-18;-2.239903e-16;1.12968e-16;45;0;1.50624e-16;1.499796e-16;0;5.636723e-18;3.611547e-17;-2.220446e-16;3.047874e-17;5.24952;-2.220446e-16;2.220446e-16;0
-10.212419;47.02244;5.590928;0;0;0;0;-1.110223e-16;2.220446e-16;-5.151744e-18;0;0;0;0;2.221243e-16;-1.11102e-16;1.666131e-16;45;0;2.221508e-16;1.959153e-16;-1.110223e-16;2.591276e-17;-3.621625e-17;2.220446e-16;-6.212901e-17;5.585794;1.110223e-16;-1.110223e-16;0
-8.599433;47.02244;5.914025;0;0;0;0;2.220446e-16;0;1.020672e-17;0;0;0;0;2.225128e-16;-4.681846e-19;1.114905e-16;45;0;1.48654e-16;1.484982e-16;2.220446e-16;2.041343e-17;0;0;-2.041343e-17;5.909712;2.220446e-16;-2.220446e-16;0
-6.986447;47.02244;6.260058;0;0;0;0;-1.110223e-16;0;6.805946e-19;0;0;0;0;4.172059e-21;-1.110265e-16;5.551532e-17;45;0;7.402043e-17;7.401904e-17;-1.110223e-16;1.361189e-18;0;0;-1.361189e-18;6.235202;-1.110223e-16;1.110223e-16;0
-5.373461;47.02244;6.57756;0;0;0;0;2.220446e-16;0;1.055744e-17;0;0;0;0;2.225454e-16;-5.008394e-19;1.115231e-16;45;0;1.486975e-16;1.485309e-16;2.220446e-16;2.111488e-17;0;0;-2.111488e-17;6.538526;2.220446e-16;-2.220446e-16;0
-3.760475;47.02244;6.835704;0;0;0;0;0;-1.110223e-16;1.346076e-19;0;0;0;0;1.632031e-22;-1.110225e-16;5.551132e-17;45;0;7.401509e-17;7.401503e-17;0;0;2.692153e-19;-1.110223e-16;2.692153e-19;6.792734;-1.110223e-16;1.110223e-16;0
-2.147489;47.02244;7.030972;0;0;0;0;2.220446e-16;0;-4.259666e-20;0;0;0;0;2.220446e-16;-8.17167e-24;1.110223e-16;45;0;1.480297e-16;1.480297e-16;2.220446e-16;-8.519332e-20;0;0;8.519332e-20;6.999077;2.220446e-16;-2.220446e-16;0
-0.534503;47.02244;7.20311;0;0;0;0;0;0;1.090523e-17;0;0;0;0;1.090523e-17;-1.090523e-17;1.090523e-17;45;0;1.454031e-17;1.259227e-17;0;2.181046e-17;0;0;-2.181046e-17;7.129448;0;0;0
1.078483;47.02244;7.241565;0;0;0;0;2.220446e-16;-1.110223e-16;-1.402224e-22;0;0;0;0;2.220446e-16;-1.110223e-16;1.665335e-16;45;0;2.220446e-16;1.958249e-16;2.220446e-16;-1.341783e-21;1.061339e-21;-1.110223e-16;2.403122e-21;7.151257;1.110223e-16;-1.110223e-16;0
2.691469;47.02244;7.103919;0;0;0;0;0;0;0;0;0;0;0;0;0;0;45;0;0;0;0;0;0;0;0;7.092313;0;0;0
4.304455;47.02244;7.031438;0;0;0;0;-1.110223e-16;-1.110223e-16;2.179098e-17;0;0;0;0;-8.923133e-17;-1.328133e-16;2.179098e-17;45;0;2.905464e-17;7.817499e-17;-1.110223e-16;4.359893e-17;-1.697776e-20;-1.110223e-16;-4.361591e-17;7.007193;-2.220446e-16;2.220446e-16;0
5.917441;47.02244;6.985085;0;0;0;0;2.220446e-16;0;1.090787e-17;0;0;0;0;2.225792e-16;-5.345591e-19;1.115569e-16;45;0;1.487425e-16;1.485646e-16;2.220446e-16;2.181575e-17;0;0;-2.181575e-17;6.936289;2.220446e-16;-2.220446e-16;0
7.530427;47.02244;6.896504;0;0;0;0;0;0;0;0;0;0;0;0;0;0;45;0;0;0;0;0;0;0;0;6.841118;0;0;0
9.143413;47.02244;6.746924;0;0;0;0;0;0;1.090522e-17;0;0;0;0;1.090522e-17;-1.090522e-17;1.090522e-17;45;0;1.454029e-17;1.259226e-17;0;2.181044e-17;0;0;-2.181044e-17;6.699137;0;0;0
10.756399;47.02244;6.552541;0;0;0;0;0;2.220446e-16;-1.088836e-17;0;0;0;0;2.225773e-16;-5.326523e-19;1.11555e-16;45;0;1.487399e-16;1.485627e-16;0;-2.181041e-17;3.369691e-20;2.220446e-16;2.18441e-17;6.511079;2.220446e-16;-2.220446e-16;0
12.369385;47.02244;6.326625;0;0;0;0;2.220446e-16;-1.110223e-16;-1.230241e-20;0;0;0;0;2.220446e-16;-1.110223e-16;1.665335e-16;45;0;2.220446e-16;1.958249e-16;2.220446e-16;4.25647e-20;-6.716953e-20;-1.110223e-16;-1.097342e-19;6.281792;1.110223e-16;-1.110223e-16;0
13.982371;47.02244;6.058328;0;0;0;0;-1.110223e-16;0;2.176756e-17;0;0;0;0;4.115308e-18;-1.151376e-16;5.962646e-17;45;0;7.950194e-17;7.81663e-17;-1.110223e-16;4.353512e-17;0;0;-4.353512e-17;6.01133;-1.110223e-16;1.110223e-16;0
15.595357;47.02244;5.744274;0;0;0;0;2.220446e-16;2.220446e-16;-1.068669e-17;0;0;0;0;2.327313e-16;2.113579e-16;1.068669e-17;45;0;1.424893e-17;1.485432e-16;2.220446e-16;-2.163946e-17;2.660709e-19;2.220446e-16;2.190553e-17;5.696598;4.440892e-16;-4.440892e-16;0
17.208343;47.02244;5.382302;0;0;0;0;0;-1.110223e-16;1.077232e-17;0;0;0;0;1.035563e-18;-1.120579e-16;5.654672e-17;45;0;7.539562e-17;7.505281e-17;0;2.180894e-17;-2.642948e-19;-1.110223e-16;-2.207324e-17;5.33337;-1.110223e-16;1.110223e-16;0
18.821329;47.02244;4.967419;0;0;0;0;-1.110223e-16;0;-1.702546e-19;0;0;0;0;2.610878e-22;-1.110226e-16;5.551141e-17;45;0;7.401521e-17;7.401513e-17;-1.110223e-16;-3.405092e-19;0;0;3.405092e-19;4.920929;-1.110223e-16;1.110223e-16;0
20.434315;47.02244;4.503215;0;0;0;0;2.220446e-16;0;1.702514e-19;0;0;0;0;2.220447e-16;-1.305392e-22;1.110224e-16;45;0;1.480299e-16;1.480299e-16;2.220446e-16;3.405029e-19;0;0;-3.405029e-19;4.458843;2.220446e-16;-2.220446e-16;0
22.047301;47.02244;3.982631;0;0;0;0;0;2.220446e-16;-1.038743e-17;0;0;0;0;2.225295e-16;-4.848741e-19;1.115072e-16;45;0;1.486762e-16;1.485149e-16;0;-2.18077e-17;1.032835e-18;2.220446e-16;2.284054e-17;3.952263;2.220446e-16;-2.220446e-16;0
23.660287;47.02244;3.433184;0;0;0;0;0;-1.110223e-16;1.039133e-17;0;0;0;0;9.642216e-19;-1.119865e-16;5.647537e-17;45;0;7.530049e-17;7.498116e-17;0;2.180607e-17;-1.023403e-18;-1.110223e-16;-2.282947e-17;3.397194;-1.110223e-16;1.110223e-16;0
25.273273;47.02244;2.822621;0;0;0;0;2.220446e-16;2.220446e-16;1.209016e-17;0;0;0;0;2.341348e-16;2.099545e-16;1.209016e-17;45;0;1.612021e-17;1.486866e-16;2.220446e-16;2.316773e-17;1.012587e-18;2.220446e-16;-2.215514e-17;2.793674;4.440892e-16;-4.440892e-16;0
26.886259;47.02244;2.170836;0;0;0;0;0;0;-1.090191e-17;0;0;0;0;1.090191e-17;-1.090191e-17;1.090191e-17;45;0;1.453588e-17;1.258844e-17;0;-2.180382e-17;0;0;2.180382e-17;2.134643;0;0;0
28.499246;47.02244;1.453144;0;0;0;0;2.220446e-16;2.220446e-16;2.97472e-17;0;0;0;0;2.517918e-16;1.922974e-16;2.97472e-17;45;0;3.966294e-17;1.519627e-16;2.220446e-16;2.595014e-17;3.354427e-17;2.220446e-16;7.594138e-18;1.422428;4.440892e-16;-4.440892e-16;0
30.112232;47.02244;0.681088;0;0;0;0;0;2.220446e-16;1.659782e-17;0;0;0;0;2.232784e-16;-1.233831e-18;1.122561e-16;45;0;1.496748e-16;1.492653e-16;0;0;3.319565e-17;2.220446e-16;3.319565e-17;0.658783;2.220446e-16;-2.220446e-16;0
31.725218;47.02244;-0.117281;0;0;0;0;2.220446e-16;0;-3.29348e-17;0;0;0;0;2.268267e-16;-4.78207e-18;1.158044e-16;45;0;1.544058e-16;1.528367e-16;2.220446e-16;-6.58696e-17;0;0;6.58696e-17;-0.118346;2.220446e-16;-2.220446e-16;0
-44.085126;45.409454;-14.190562;0;0;0;0;2.220446e-16;0;-4.80118e-18;0;0;0;0;2.221484e-16;-1.037654e-19;1.111261e-16;45;0;1.481681e-16;1.481335e-16;2.220446e-16;-9.602359e-18;0;0;9.602359e-18;-14.190642;2.220446e-16;-2.220446e-16;0
-42.47214;45.409454;-12.413785;0;0;0;0;2.220446e-16;2.220446e-16;-8.421e-18;0;0;0;0;2.304656e-16;2.136236e-16;8.421e-18;45;0;1.1228e-17;1.483488e-16;2.220446e-16;-1.089518e-17;-5.946818e-18;2.220446e-16;4.948363e-18;-12.453505;4.440892e-16;-4.440892e-16;0
-40.859154;45.409454;-10.748897;0;0;0;0;0;2.220446e-16;-1.539533e-18;0;0;0;0;2.220553e-16;-1.067375e-20;1.11033e-16;45;0;1.48044e-16;1.480404e-16;0;0;-3.079067e-18;2.220446e-16;-3.079067e-18;-10.791206;2.220446e-16;-2.220446e-16;0
-39.246168;45.409454;-9.199562;0;0;0;0;2.220446e-16;0;-2.451407e-17;0;0;0;0;2.247188e-16;-2.674184e-18;1.136965e-16;45;0;1.515953e-16;1.507118e-16;2.220446e-16;-4.902813e-17;0;0;4.902813e-17;-9.238613;2.220446e-16;-2.220446e-16;0
-37.633182;45.409454;-7.751861;0;0;0;0;0;-1.110223e-16;1.253901e-17;0;0;0;0;1.398555e-18;-1.124209e-16;5.690971e-17;45;0;7.587961e-17;7.541775e-17;0;2.178971e-17;3.288311e-18;-1.110223e-16;-1.85014e-17;-7.793388;-1.110223e-16;1.110223e-16;0
-36.020196;45.409454;-6.406827;0;0;0;0;2.220446e-16;2.220446e-16;-7.141471e-18;0;0;0;0;2.291861e-16;2.149031e-16;7.141471e-18;45;0;9.521961e-18;1.482592e-16;2.220446e-16;-1.089128e-17;-3.391663e-18;2.220446e-16;7.499617e-18;-6.44987;4.440892e-16;-4.440892e-16;0
-34.40721;45.409454;-5.167352;0;0;0;0;0;0;-2.178402e-17;0;0;0;0;2.178402e-17;-2.178402e-17;2.178402e-17;45;0;2.904536e-17;2.515401e-17;0;-4.356803e-17;0;0;4.356803e-17;-5.199882;0;0;0
-32.794224;45.409454;-4.002283;0;0;0;0;0;0;-2.178145e-17;0;0;0;0;2.178145e-17;-2.178145e-17;2.178145e-17;45;0;2.904193e-17;2.515105e-17;0;-4.356289e-17;0;0;4.356289e-17;-4.041315;0;0;0
-31.181238;45.409454;-2.928931;0;0;0;0;0;0;0;0;0;0;0;0;0;0;45;0;0;0;0;0;0;0;0;-2.960826;0;0;0
-29.568251;45.409454;-1.918822;0;0;0;0;2.220446e-16;-1.110223e-16;1.275317e-17;0;0;0;0;2.225322e-16;-1.115099e-16;1.670211e-16;45;0;2.226948e-16;1.963779e-16;2.220446e-16;2.177951e-17;3.726829e-18;-1.110223e-16;-1.805268e-17;-1.957656;1.110223e-16;-1.110223e-16;0
-27.955265;45.409454;-0.991356;0;0;0;0;-1.110223e-16;0;2.72139e-18;0;0;0;0;6.666695e-20;-1.11089e-16;5.557782e-17;45;0;7.410376e-17;7.408155e-17;-1.110223e-16;5.44278e-18;0;0;-5.44278e-18;-1.024744;-1.110223e-16;1.110223e-16;0
-26.342279;45.409454;-0.134093;0;0;0;0;0;0;0;0;0;0;0;0;0;0;45;0;0;0;0;0;0;0;0;-0.157383;0;0;0
-24.729293;45.409454;0.675181;0;0;0;0;0;2.220446e-16;7.564289e-18;0;0;0;0;2.22302e-16;-2.573907e-19;1.112797e-16;45;0;1.483729e-16;1.482872e-16;0;1.904443e-17;-3.915852e-18;2.220446e-16;-2.296028e-17;0.648655;2.220446e-16;-2.220446e-16;0
-23.116307;45.409454;1.421291;0;0;0;0;0;-1.110223e-16;2.375016e-17;0;0;0;0;4.867306e-18;-1.158896e-16;6.037846e-17;45;0;8.050461e-17;7.893221e-17;0;4.353076e-17;3.969564e-18;-1.110223e-16;-3.95612e-17;1.399798;-1.110223e-16;1.110223e-16;0
-21.503321;45.409454;2.119665;0;0;0;0;0;2.220446e-16;8.880438e-18;0;0;0;0;2.223992e-16;-3.545974e-19;1.113769e-16;45;0;1.485025e-16;1.483845e-16;0;2.176902e-17;-4.008149e-18;2.220446e-16;-2.577717e-17;2.100161;2.220446e-16;-2.220446e-16;0
-19.890335;45.409454;2.785301;0;0;0;0;0;2.220446e-16;-2.02405e-18;0;0;0;0;2.220631e-16;-1.844871e-20;1.110408e-16;45;0;1.480543e-16;1.480482e-16;0;0;-4.048099e-18;2.220446e-16;-4.048099e-18;2.752929;2.220446e-16;-2.220446e-16;0
-18.277349;45.409454;3.392017;0;0;0;0;0;2.220446e-16;-2.052098e-18;0;0;0;0;2.220636e-16;-1.896352e-20;1.110413e-16;45;0;1.48055e-16;1.480487e-16;0;1.132237e-21;-4.105329e-18;2.220446e-16;-4.106461e-18;3.348417;2.220446e-16;-2.220446e-16;0
-16.664363;45.409454;3.912337;0;0;0;0;-1.110223e-16;-1.110223e-16;-8.484865e-18;0;0;0;0;-1.025374e-16;-1.195072e-16;8.484865e-18;45;0;1.131315e-17;7.466051e-17;-1.110223e-16;-1.904835e-17;2.078619e-18;-1.110223e-16;2.112697e-17;3.880849;-2.220446e-16;2.220446e-16;0
-15.051377;45.409454;4.377196;0;0;0;0;2.220446e-16;0;-1.224081e-17;0;0;0;0;2.227174e-16;-6.727699e-19;1.116951e-16;45;0;1.489268e-16;1.48703e-16;2.220446e-16;-2.448163e-17;0;0;2.448163e-17;4.361546;2.220446e-16;-2.220446e-16;0
-13.438391;45.409454;4.821693;0;0;0;0;0;0;-1.087783e-17;0;0;0;0;1.087783e-17;-1.087783e-17;1.087783e-17;45;0;1.450377e-17;1.256063e-17;0;-2.175565e-17;0;0;2.175565e-17;4.793467;0;0;0
-11.825405;45.409454;5.196809;0;0;0;0;0;0;0;0;0;0;0;0;0;0;45;0;0;0;0;0;0;0;0;5.171598;0;0;0
-10.212419;45.409454;5.503542;0;0;0;0;-1.110223e-16;0;6.796999e-19;0;0;0;0;4.161098e-21;-1.110265e-16;5.551531e-17;45;0;7.402042e-17;7.401903e-17;-1.110223e-16;1.3594e-18;0;0;-1.3594e-18;5.507968;-1.110223e-16;1.110223e-16;0
-8.599433;45.409454;5.827991;0;0;0;0;-1.110223e-16;0;6.796609e-19;0;0;0;0;4.16062e-21;-1.110265e-16;5.551531e-17;45;0;7.402042e-17;7.401903e-17;-1.110223e-16;1.359322e-18;0;0;-1.359322e-18;5.833576;-1.110223e-16;1.110223e-16;0
-6.986447;45.409454;6.176275;0;0;0;0;-1.110223e-16;0;-9.51345e-18;0;0;0;0;8.093036e-19;-1.118316e-16;5.632046e-17;45;0;7.509394e-17;7.482563e-17;-1.110223e-16;-1.90269e-17;0;0;1.90269e-17;6.161653;-1.110223e-16;1.110223e-16;0
-5.373461;45.409454;6.503951;0;0;0;0;0;0;0;0;0;0;0;0;0;0;45;0;0;0;0;0;0;0;0;6.467426;0;0;0
-3.760475;45.409454;6.776687;0;0;0;0;-1.110223e-16;2.220446e-16;-3.980632e-19;0;0;0;0;2.220451e-16;-1.110228e-16;1.665339e-16;45;0;2.220452e-16;1.958255e-16;-1.110223e-16;1.35634e-18;-2.152467e-18;2.220446e-16;-3.508808e-18;6.724596;1.110223e-16;-1.110223e-16;0
-2.147489;45.409454;6.985234;0;0;0;0;0;-1.110223e-16;5.400028e-19;0;0;0;0;2.626465e-21;-1.110249e-16;5.551378e-17;45;0;7.401837e-17;7.40175e-17;0;0;1.080006e-18;-1.110223e-16;1.080006e-18;6.933143;-1.110223e-16;1.110223e-16;0
-0.534503;45.409454;7.166346;0;0;0;0;0;-1.110223e-16;-1.05731e-17;0;0;0;0;9.979477e-19;-1.120203e-16;5.65091e-17;45;0;7.534547e-17;7.501503e-17;0;-2.16889e-17;5.427035e-19;-1.110223e-16;2.22316e-17;7.061793;-1.110223e-16;1.110223e-16;0
1.078483;45.409454;7.189241;0;0;0;0;0;0;2.167864e-17;0;0;0;0;2.167864e-17;-2.167864e-17;2.167864e-17;45;0;2.890485e-17;2.503233e-17;0;4.335728e-17;0;0;-4.335728e-17;7.087678;0;0;0
2.691469;45.409454;7.047504;0;0;0;0;0;0;0;0;0;0;0;0;0;0;45;0;0;0;0;0;0;0;0;7.037784;0;0;0
4.304455;45.409454;6.976222;0;0;0;0;2.220446e-16;0;1.699826e-19;0;0;0;0;2.220447e-16;-1.301272e-22;1.110224e-16;45;0;1.480299e-16;1.480299e-16;2.220446e-16;3.399651e-19;0;0;-3.399651e-19;6.967586;2.220446e-16;-2.220446e-16;0
5.917441;45.409454;6.93126;0;0;0;0;2.220446e-16;0;-1.071283e-17;0;0;0;0;2.225603e-16;-5.156571e-19;1.11538e-16;45;0;1.487173e-16;1.485457e-16;2.220446e-16;-2.142566e-17;0;0;2.142566e-17;6.903868;2.220446e-16;-2.220446e-16;0
7.530427;45.409454;6.843407;0;0;0;0;0;0;0;0;0;0;0;0;0;0;45;0;0;0;0;0;0;0;0;6.809969;0;0;0
9.143413;45.409454;6.697415;0;0;0;0;0;2.220446e-16;-1.034284e-17;0;0;0;0;2.225253e-16;-4.807292e-19;1.11503e-16;45;0;1.486707e-16;1.485107e-16;0;-2.17671e-17;1.081409e-18;2.220446e-16;2.284851e-17;6.66707;2.220446e-16;-2.220446e-16;0
10.756399;45.409454;6.506132;0;0;0;0;0;0;0;0;0;0;0;0;0;0;45;0;0;0;0;0;0;0;0;6.478545;0;0;0
12.369385;45.409454;6.277424;0;0;0;0;-1.110223e-16;0;2.02721e-22;0;0;0;0;3.701607e-28;-1.110223e-16;5.551115e-17;45;0;7.401487e-17;7.401487e-17;-1.110223e-16;4.05442e-22;0;0;-4.05442e-22;6.248746;-1.110223e-16;1.110223e-16;0
13.982371;45.409454;6.004568;0;0;0;0;2.220446e-16;0;2.244915e-17;0;0;0;0;2.242915e-16;-2.246916e-18;1.132692e-16;45;0;1.510256e-16;1.502823e-16;2.220446e-16;4.48983e-17;0;0;-4.48983e-17;5.976576;2.220446e-16;-2.220446e-16;0
15.595357;45.409454;5.685835;0;0;0;0;0;2.220446e-16;1.063658e-18;0;0;0;0;2.220497e-16;-5.095116e-21;1.110274e-16;45;0;1.480365e-16;1.480348e-16;0;0;2.127317e-18;2.220446e-16;2.127317e-18;5.658132;2.220446e-16;-2.220446e-16;0
17.208343;45.409454;5.320719;0;0;0;0;0;2.220446e-16;1.736752e-18;0;0;0;0;2.220582e-16;-1.35834e-20;1.110359e-16;45;0;1.480478e-16;1.480433e-16;0;1.359799e-18;2.113704e-18;2.220446e-16;7.539045e-19;5.29206;2.220446e-16;-2.220446e-16;0
18.821329;45.409454;4.906693;0;0;0;0;0;0;1.088225e-17;0;0;0;0;1.088225e-17;-1.088225e-17;1.088225e-17;45;0;1.450966e-17;1.256574e-17;0;2.17645e-17;0;0;-2.17645e-17;4.878362;0;0;0
20.434315;45.409454;4.445656;0;0;0;0;0;2.220446e-16;-2.07288e-17;0;0;0;0;2.239632e-16;-1.918544e-18;1.129408e-16;45;0;1.505878e-16;1.499524e-16;0;-4.353968e-17;2.082085e-18;2.220446e-16;4.562177e-17;4.415938;2.220446e-16;-2.220446e-16;0
22.047301;45.409454;3.937659;0;0;0;0;0;0;0;0;0;0;0;0;0;0;45;0;0;0;0;0;0;0;0;3.906599;0;0;0
23.660287;45.409454;3.381501;0;0;0;0;-1.110223e-16;0;-2.313539e-17;0;0;0;0;4.62814e-18;-1.156504e-16;6.013929e-17;45;0;8.018572e-17;7.868839e-17;-1.110223e-16;-4.627079e-17;0;0;4.627079e-17;3.347902;-1.110223e-16;1.110223e-16;0
25.273273;45.409454;2.773583;0;0;0;0;-1.110223e-16;2.220446e-16;-1.022403e-17;0;0;0;0;2.223582e-16;-1.113359e-16;1.66847e-16;45;0;2.224627e-16;1.961805e-16;-1.110223e-16;-2.449573e-17;4.047672e-18;2.220446e-16;2.85434e-17;2.740692;1.110223e-16;-1.110223e-16;0
26.886259;45.409454;2.113281;0;0;0;0;0;-1.110223e-16;-1.188825e-17;0;0;0;0;1.258722e-18;-1.12281e-16;5.676988e-17;45;0;7.569317e-17;7.52771e-17;0;-2.177537e-17;-2.001138e-18;-1.110223e-16;1.977423e-17;2.080911;-1.110223e-16;1.110223e-16;0
28.499246;45.409454;1.401141;0;0;0;0;0;-1.110223e-16;9.902348e-18;0;0;0;0;8.762978e-19;-1.118986e-16;5.638745e-17;45;0;7.518327e-17;7.489287e-17;0;2.17774e-17;-1.972705e-18;-1.110223e-16;-2.37501e-17;1.363919;-1.110223e-16;1.110223e-16;0
30.112232;45.409454;0.615979;0;0;0;0;0;0;-1.088777e-17;0;0;0;0;1.088777e-17;-1.088777e-17;1.088777e-17;45;0;1.451702e-17;1.257211e-17;0;-2.177554e-17;0;0;2.177554e-17;0.598275;0;0;0
31.725218;45.409454;-0.186651;0;0;0;0;0;-1.110223e-16;-2.757257e-18;0;0;0;0;6.843473e-20;-1.110907e-16;5.557959e-17;45;0;7.410611e-17;7.408331e-17;0;0;-5.514513e-18;-1.110223e-16;-5.514513e-18;-0.197499;-1.110223e-16;1.110223e-16;0
-44.085126;43.796468;-14.288817;0;0;0;0;-1.110223e-16;0;-9.33866e-18;0;0;0;0;7.800423e-19;-1.118023e-16;5.62912e-17;45;0;7.505493e-17;7.479627e-17;-1.110223e-16;-1.867732e-17;0;0;1.867732e-17;-14.284671;-1.110223e-16;1.110223e-16;0
-42.47214;43.796468;-12.517254;0;0;0;0;-2.220446e-16;-1.110223e-16;-1.485875e-17;0;0;0;0;-1.090681e-16;-2.239988e-16;5.746538e-17;45;0;7.662051e-17;1.293406e-16;-2.220446e-16;-3.269162e-17;2.97413e-18;-1.110223e-16;3.566575e-17;-12.547471;-3.330669e-16;3.330669e-16;0
-40.859154;43.796468;-10.849184;0;0;0;0;0;0;0;0;0;0;0;0;0;0;45;0;0;0;0;0;0;0;0;-10.883944;0;0;0
-39.246168;43.796468;-9.293321;0;0;0;0;0;0;-1.089368e-17;0;0;0;0;1.089368e-17;-1.089368e-17;1.089368e-17;45;0;1.45249e-17;1.257893e-17;0;-2.178735e-17;0;0;2.178735e-17;-9.332219;0;0;0
-37.633182;43.796468;-7.852676;0;0;0;0;-2.220446e-16;-1.110223e-16;-6.523688e-18;0;0;0;0;-1.106403e-16;-2.224266e-16;5.589317e-17;45;0;7.452423e-17;1.284186e-16;-2.220446e-16;-1.633758e-17;3.290208e-18;-1.110223e-16;1.962779e-17;-7.886975;-3.330669e-16;3.330669e-16;0
-36.020196;43.796468;-6.50525;0;0;0;0;0;0;0;0;0;0;0;0;0;0;45;0;0;0;0;0;0;0;0;-6.5451;0;0;0
-34.40721;43.796468;-5.264633;0;0;0;0;-1.110223e-16;-1.110223e-16;4.463777e-18;0;0;0;0;-1.065585e-16;-1.154861e-16;4.463777e-18;45;0;5.951703e-18;7.419412e-17;-1.110223e-16;5.442142e-18;3.485412e-18;-1.110223e-16;-1.95673e-18;-5.294795;-2.220446e-16;2.220446e-16;0
-32.794224;43.796468;-4.102039;0;0;0;0;-1.110223e-16;-1.110223e-16;2.355535e-17;0;0;0;0;-8.746696e-17;-1.345777e-16;2.355535e-17;45;0;3.140713e-17;7.885434e-17;-1.110223e-16;4.353708e-17;3.573608e-18;-1.110223e-16;-3.996348e-17;-4.135906;-2.220446e-16;2.220446e-16;0
-31.181238;43.796468;-3.03133;0;0;0;0;0;-1.110223e-16;1.270873e-17;0;0;0;0;1.436191e-18;-1.124585e-16;5.694734e-17;45;0;7.592979e-17;7.545561e-17;0;2.176367e-17;3.653794e-18;-1.110223e-16;-1.810987e-17;-3.054716;-1.110223e-16;1.110223e-16;0
-29.568251;43.796468;-2.023984;0;0;0;0;2.220446e-16;0;2.914729e-22;0;0;0;0;2.220446e-16;-3.825975e-28;1.110223e-16;45;0;1.480297e-16;1.480297e-16;2.220446e-16;5.829458e-22;0;0;-5.829458e-22;-2.049247;2.220446e-16;-2.220446e-16;0
-27.955265;43.796468;-1.087184;0;0;0;0;2.220446e-16;0;1.90417e-17;0;0;0;0;2.236657e-16;-1.621109e-18;1.126434e-16;45;0;1.501912e-16;1.496538e-16;2.220446e-16;3.808341e-17;0;0;-3.808341e-17;-1.115;2.220446e-16;-2.220446e-16;0
-26.342279;43.796468;-0.23042;0;0;0;0;-1.110223e-16;0;-2.340722e-22;0;0;0;0;4.934941e-28;-1.110223e-16;5.551115e-17;45;0;7.401487e-17;7.401487e-17;-1.110223e-16;-4.681445e-22;0;0;4.681445e-22;-0.248512;-1.110223e-16;1.110223e-16;0
-24.729293;43.796468;0.573778;0;0;0;0;2.220446e-16;0;-1.359835e-17;0;0;0;0;2.228743e-16;-8.296832e-19;1.11852e-16;45;0;1.49136e-16;1.488602e-16;2.220446e-16;-2.71967e-17;0;0;2.71967e-17;0.556893;2.220446e-16;-2.220446e-16;0
-23.116307;43.796468;1.326619;0;0;0;0;0;0;9.518872e-18;0;0;0;0;9.518872e-18;-9.518872e-18;9.518872e-18;45;0;1.269183e-17;1.099145e-17;0;1.903774e-17;0;0;-1.903774e-17;1.30904;0;0;0
-21.503321;43.796468;2.026326;0;0;0;0;-1.110223e-16;2.220446e-16;-1.152174e-17;0;0;0;0;2.224427e-16;-1.114204e-16;1.669315e-16;45;0;2.225754e-16;1.962764e-16;-1.110223e-16;-1.90351e-17;-4.008369e-18;2.220446e-16;1.502674e-17;2.011785;1.110223e-16;-1.110223e-16;0
-19.890335;43.796468;2.685293;0;0;0;0;0;0;-2.174524e-17;0;0;0;0;2.174524e-17;-2.174524e-17;2.174524e-17;45;0;2.899366e-17;2.510925e-17;0;-4.349049e-17;0;0;4.349049e-17;2.665737;0;0;0
-18.277349;43.796468;3.292132;0;0;0;0;2.220446e-16;0;1.902264e-17;0;0;0;0;2.236625e-16;-1.617888e-18;1.126402e-16;45;0;1.501869e-16;1.496505e-16;2.220446e-16;3.804528e-17;0;0;-3.804528e-17;3.261717;2.220446e-16;-2.220446e-16;0
-16.664363;43.796468;3.815783;0;0;0;0;0;-1.110223e-16;1.190921e-17;0;0;0;0;1.263114e-18;-1.122854e-16;5.677426e-17;45;0;7.569902e-17;7.528152e-17;0;2.173978e-17;2.078638e-18;-1.110223e-16;-1.966115e-17;3.794088;-1.110223e-16;1.110223e-16;0
-15.051377;43.796468;4.280761;0;0;0;0;2.220446e-16;0;9.512039e-18;0;0;0;0;2.224513e-16;-4.067357e-19;1.11429e-16;45;0;1.485721e-16;1.484367e-16;2.220446e-16;1.902408e-17;0;0;-1.902408e-17;4.273242;2.220446e-16;-2.220446e-16;0
-13.438391;43.796468;4.728112;0;0;0;0;0;0;2.174175e-17;0;0;0;0;2.174175e-17;-2.174175e-17;2.174175e-17;45;0;2.8989e-17;2.510521e-17;0;4.34835e-17;0;0;-4.34835e-17;4.70286;0;0;0
-11.825405;43.796468;5.1062;0;0;0;0;0;0;0;0;0;0;0;0;0;0;45;0;0;0;0;0;0;0;0;5.07937;0;0;0
-10.212419;43.796468;5.414943;0;0;0;0;0;0;1.086874e-17;0;0;0;0;1.086874e-17;-1.086874e-17;1.086874e-17;45;0;1.449165e-17;1.255014e-17;0;2.173747e-17;0;0;-2.173747e-17;5.414691;0;0;0
-8.599433;43.796468;5.737049;0;0;0;0;2.220446e-16;2.220446e-16;-2.423397e-18;0;0;0;0;2.24468e-16;2.196212e-16;2.423397e-18;45;0;3.231197e-18;1.480562e-16;2.220446e-16;-2.716905e-18;-2.12989e-18;2.220446e-16;5.870145e-19;5.73874;4.440892e-16;-4.440892e-16;0
-6.986447;43.796468;6.077373;0;0;0;0;0;2.220446e-16;-1.192686e-17;0;0;0;0;2.226834e-16;-6.387993e-19;1.116611e-16;45;0;1.488815e-16;1.48669e-16;0;-2.172142e-17;-2.132298e-18;2.220446e-16;1.958912e-17;6.061732;2.220446e-16;-2.220446e-16;0
-5.373461;43.796468;6.380594;0;0;0;0;0;0;1.083918e-17;0;0;0;0;1.083918e-17;-1.083918e-17;1.083918e-17;45;0;1.445224e-17;1.251601e-17;0;2.167836e-17;0;0;-2.167836e-17;6.356197;0;0;0
-3.760475;43.796468;6.618639;0;0;0;0;0;0;0;0;0;0;0;0;0;0;45;0;0;0;0;0;0;0;0;6.600366;0;0;0
-2.147489;43.796468;6.812018;0;0;0;0;2.220446e-16;-1.110223e-16;-1.103477e-17;0;0;0;0;2.224098e-16;-1.113875e-16;1.668986e-16;45;0;2.225315e-16;1.96239e-16;2.220446e-16;-2.423158e-17;2.162049e-18;-1.110223e-16;2.639363e-17;6.794772;1.110223e-16;-1.110223e-16;0
-0.534503;43.796468;6.969571;0;0;0;0;2.220446e-16;2.220446e-16;-1.213489e-18;0;0;0;0;2.232581e-16;2.208311e-16;1.213489e-18;45;0;1.617986e-18;1.480364e-16;2.220446e-16;-1.34099e-18;-1.085988e-18;2.220446e-16;2.550025e-19;6.914316;4.440892e-16;-4.440892e-16;0
1.078483;43.796468;6.95808;0;0;0;0;2.220446e-16;0;1.68047e-19;0;0;0;0;2.220447e-16;-1.271806e-22;1.110224e-16;45;0;1.480299e-16;1.480299e-16;2.220446e-16;3.360939e-19;0;0;-3.360939e-19;6.949381;2.220446e-16;-2.220446e-16;0
2.691469;43.796468;6.90976;0;0;0;0;0;0;1.065136e-17;0;0;0;0;1.065136e-17;-1.065136e-17;1.065136e-17;45;0;1.420182e-17;1.229914e-17;0;2.130273e-17;0;0;-2.130273e-17;6.921547;0;0;0
4.304455;43.796468;6.882328;0;0;0;0;2.220446e-16;0;-1.077256e-17;0;0;0;0;2.22566e-16;-5.214098e-19;1.115437e-16;45;0;1.487249e-16;1.485514e-16;2.220446e-16;-2.154513e-17;0;0;2.154513e-17;6.875531;2.220446e-16;-2.220446e-16;0
5.917441;43.796468;6.840751;0;0;0;0;0;0;-1.069481e-17;0;0;0;0;1.069481e-17;-1.069481e-17;1.069481e-17;45;0;1.425975e-17;1.23493e-17;0;-2.138962e-17;0;0;2.138962e-17;6.819401;0;0;0
7.530427;43.796468;6.74782;0;0;0;0;0;2.220446e-16;5.42163e-19;0;0;0;0;2.220459e-16;-1.323783e-21;1.110236e-16;45;0;1.480315e-16;1.480311e-16;0;0;1.084326e-18;2.220446e-16;1.084326e-18;6.725087;2.220446e-16;-2.220446e-16;0
9.143413;43.796468;6.600555;0;0;0;0;2.220446e-16;2.220446e-16;1.219437e-18;0;0;0;0;2.23264e-16;2.208252e-16;1.219437e-18;45;0;1.625917e-18;1.480364e-16;2.220446e-16;1.357434e-18;1.081441e-18;2.220446e-16;-2.759922e-19;6.581521;4.440892e-16;-4.440892e-16;0
10.756399;43.796468;6.412336;0;0;0;0;-1.110223e-16;0;-6.787951e-19;0;0;0;0;4.150027e-21;-1.110265e-16;5.55153e-17;45;0;7.40204e-17;7.401902e-17;-1.110223e-16;-1.35759e-18;0;0;1.35759e-18;6.393903;-1.110223e-16;1.110223e-16;0
12.369385;43.796468;6.186952;0;0;0;0;-1.110223e-16;0;-1.154397e-17;0;0;0;0;1.187624e-18;-1.122099e-16;5.669878e-17;45;0;7.559837e-17;7.520562e-17;-1.110223e-16;-2.308793e-17;0;0;2.308793e-17;6.165071;-1.110223e-16;1.110223e-16;0
13.982371;43.796468;5.913805;0;0;0;0;2.220446e-16;-1.110223e-16;-1.125712e-17;0;0;0;0;2.224246e-16;-1.114023e-16;1.669135e-16;45;0;2.225513e-16;1.962559e-16;2.220446e-16;-2.037563e-17;-2.138604e-18;-1.110223e-16;1.823703e-17;5.892284;1.110223e-16;-1.110223e-16;0
15.595357;43.796468;5.591374;0;0;0;0;0;2.220446e-16;1.192979e-17;0;0;0;0;2.226837e-16;-6.391123e-19;1.116614e-16;45;0;1.488819e-16;1.486693e-16;0;2.173318e-17;2.126401e-18;2.220446e-16;-1.960678e-17;5.571763;2.220446e-16;-2.220446e-16;0
17.208343;43.796468;5.221983;0;0;0;0;2.220446e-16;2.220446e-16;1.328103e-17;0;0;0;0;2.353256e-16;2.087636e-16;1.328103e-17;45;0;1.770804e-17;1.48822e-16;2.220446e-16;2.444885e-17;2.11322e-18;2.220446e-16;-2.233562e-17;5.204042;4.440892e-16;-4.440892e-16;0
18.821329;43.796468;4.807938;0;0;0;0;0;0;-1.086728e-17;0;0;0;0;1.086728e-17;-1.086728e-17;1.086728e-17;45;0;1.448971e-17;1.254846e-17;0;-2.173456e-17;0;0;2.173456e-17;4.790204;0;0;0
20.434315;43.796468;4.349336;0;0;0;0;0;0;0;0;0;0;0;0;0;0;45;0;0;0;0;0;0;0;0;4.329818;0;0;0
22.047301;43.796468;3.842896;0;0;0;0;2.220446e-16;0;1.358506e-18;0;0;0;0;2.220529e-16;-8.311251e-21;1.110306e-16;45;0;1.480408e-16;1.480381e-16;2.220446e-16;2.717011e-18;0;0;-2.717011e-18;3.82101;2.220446e-16;-2.220446e-16;0
23.660287;43.796468;3.283308;0;0;0;0;0;0;0;0;0;0;0;0;0;0;45;0;0;0;0;0;0;0;0;3.262147;0;0;0
25.273273;43.796468;2.673733;0;0;0;0;-1.110223e-16;-1.110223e-16;-4.74026e-18;0;0;0;0;-1.06282e-16;-1.157626e-16;4.74026e-18;45;0;6.320347e-18;7.421699e-17;-1.110223e-16;-5.434556e-18;-4.045964e-18;-1.110223e-16;1.388592e-18;2.652299;-2.220446e-16;2.220446e-16;0
26.886259;43.796468;2.014186;0;0;0;0;0;-1.110223e-16;-2.001042e-18;0;0;0;0;3.605463e-20;-1.110584e-16;5.55472e-17;45;0;7.406294e-17;7.405093e-17;0;0;-4.002083e-18;-1.110223e-16;-4.002083e-18;1.991961;-1.110223e-16;1.110223e-16;0
28.499246;43.796468;1.305677;0;0;0;0;0;-1.110223e-16;1.977354e-17;0;0;0;0;3.416609e-18;-1.144389e-16;5.892776e-17;45;0;7.857035e-17;7.74566e-17;0;4.349208e-17;-3.945003e-18;-1.110223e-16;-4.743709e-17;1.27349;-1.110223e-16;1.110223e-16;0
30.112232;43.796468;0.519943;0;0;0;0;2.220446e-16;0;1.087468e-17;0;0;0;0;2.225759e-16;-5.313179e-19;1.115536e-16;45;0;1.487382e-16;1.485614e-16;2.220446e-16;2.174935e-17;0;0;-2.174935e-17;0.506496;2.220446e-16;-2.220446e-16;0
31.725218;43.796468;-0.288566;0;0;0;0;2.220446e-16;2.220446e-16;-8.410578e-18;0;0;0;0;2.304552e-16;2.13634e-16;8.410578e-18;45;0;1.12141e-17;1.48348e-16;2.220446e-16;-2.232269e-17;5.501535e-18;2.220446e-16;2.782423e-17;-0.292432;4.440892e-16;-4.440892e-16;0
-44.085126;42.183482;-14.374635;0;0;0;0;2.220446e-16;0;-1.879487e-17;0;0;0;0;2.236242e-16;-1.579646e-18;1.12602e-16;45;0;1.501359e-16;1.496122e-16;2.220446e-16;-3.758974e-17;0;0;3.758974e-17;-14.376889;2.220446e-16;-2.220446e-16;0
-42.47214;42.183482;-12.603675;0;0;0;0;2.220446e-16;-1.110223e-16;-3.959762e-18;0;0;0;0;2.220917e-16;-1.110694e-16;1.665805e-16;45;0;2.221074e-16;1.958783e-16;2.220446e-16;-1.089628e-17;2.976755e-18;-1.110223e-16;1.387303e-17;-12.64376;1.110223e-16;-1.110223e-16;0
-40.859154;42.183482;-10.940435;0;0;0;0;0;0;0;0;0;0;0;0;0;0;45;0;0;0;0;0;0;0;0;-10.983102;0;0;0
-39.246168;42.183482;-9.389393;0;0;0;0;0;2.220446e-16;-1.408517e-17;0;0;0;0;2.229345e-16;-8.899116e-19;1.119122e-16;45;0;1.492163e-16;1.489205e-16;0;-2.178385e-17;-6.386487e-18;2.220446e-16;1.539736e-17;-9.434657;2.220446e-16;-2.220446e-16;0
-37.633182;42.183482;-7.964649;0;0;0;0;0;2.220446e-16;7.59334e-18;0;0;0;0;2.22304e-16;-2.593693e-19;1.112817e-16;45;0;1.483756e-16;1.482892e-16;0;2.177704e-17;-6.590363e-18;2.220446e-16;-2.83674e-17;-7.992318;2.220446e-16;-2.220446e-16;0
-36.020196;42.183482;-6.619234;0;0;0;0;-2.220446e-16;0;2.721469e-17;0;0;0;0;3.286888e-18;-2.253315e-16;1.143092e-16;45;0;1.524122e-16;1.513285e-16;-2.220446e-16;5.442938e-17;0;0;-5.442938e-17;-6.651569;-2.220446e-16;2.220446e-16;0
-34.40721;42.183482;-5.373418;0;0;0;0;0;2.220446e-16;-2.525376e-17;0;0;0;0;2.248806e-16;-2.835961e-18;1.138583e-16;45;0;1.51811e-16;1.508746e-16;0;-4.353932e-17;-6.96821e-18;2.220446e-16;3.657111e-17;-5.40044;2.220446e-16;-2.220446e-16;0
-32.794224;42.183482;-4.212114;0;0;0;0;2.220446e-16;0;-2.720098e-18;0;0;0;0;2.220779e-16;-3.331685e-20;1.110556e-16;45;0;1.480742e-16;1.480631e-16;2.220446e-16;-5.440197e-18;0;0;5.440197e-18;-4.241285;2.220446e-16;-2.220446e-16;0
-31.181238;42.183482;-3.141048;0;0;0;0;2.220446e-16;0;-2.448237e-17;0;0;0;0;2.24712e-16;-2.667355e-18;1.136897e-16;45;0;1.515862e-16;1.50705e-16;2.220446e-16;-4.896475e-17;0;0;4.896475e-17;-3.16027;2.220446e-16;-2.220446e-16;0
-29.568251;42.183482;-2.131891;0;0;0;0;2.220446e-16;-1.110223e-16;-3.350205e-17;0;0;0;0;2.25381e-16;-1.143587e-16;1.698699e-16;45;0;2.264932e-16;1.996094e-16;2.220446e-16;-7.072382e-17;3.719724e-18;-1.110223e-16;7.444354e-17;-2.15283;1.110223e-16;-1.110223e-16;0
-27.955265;42.183482;-1.188676;0;0;0;0;-1.110223e-16;2.220446e-16;8.213716e-19;0;0;0;0;2.220466e-16;-1.110243e-16;1.665355e-16;45;0;2.220473e-16;1.958272e-16;-1.110223e-16;5.439197e-18;-3.796454e-18;2.220446e-16;-9.23565e-18;-1.216417;1.110223e-16;-1.110223e-16;0
-26.342279;42.183482;-0.328577;0;0;0;0;0;0;1.087828e-17;0;0;0;0;1.087828e-17;-1.087828e-17;1.087828e-17;45;0;1.450438e-17;1.256116e-17;0;2.175657e-17;0;0;-2.175657e-17;-0.348875;0;0;0
-24.729293;42.183482;0.474745;0;0;0;0;2.220446e-16;0;1.168097e-22;0;0;0;0;2.220446e-16;-6.143254e-29;1.110223e-16;45;0;1.480297e-16;1.480297e-16;2.220446e-16;2.336195e-22;0;0;-2.336195e-22;0.457597;2.220446e-16;-2.220446e-16;0
-23.116307;42.183482;1.233515;0;0;0;0;-1.110223e-16;0;1.087676e-17;0;0;0;0;1.055552e-18;-1.120779e-16;5.65667e-17;45;0;7.542227e-17;7.507289e-17;-1.110223e-16;2.175353e-17;0;0;-2.175353e-17;1.210655;-1.110223e-16;1.110223e-16;0
-21.503321;42.183482;1.930239;0;0;0;0;-1.110223e-16;2.220446e-16;7.121864e-19;0;0;0;0;2.220461e-16;-1.110238e-16;1.66535e-16;45;0;2.220466e-16;1.958267e-16;-1.110223e-16;5.436888e-18;-4.012515e-18;2.220446e-16;-9.449403e-18;1.91267;1.110223e-16;-1.110223e-16;0
-19.890335;42.183482;2.577813;0;0;0;0;0;-1.110223e-16;2.512665e-17;0;0;0;0;5.421898e-18;-1.164442e-16;6.093305e-17;45;0;8.124407e-17;7.949842e-17;0;4.620063e-17;4.052674e-18;-1.110223e-16;-4.214796e-17;2.563729;-1.110223e-16;1.110223e-16;0
-18.277349;42.183482;3.182848;0;0;0;0;0;0;0;0;0;0;0;0;0;0;45;0;0;0;0;0;0;0;0;3.158299;0;0;0
-16.664363;42.183482;3.711933;0;0;0;0;0;-1.110223e-16;1.190641e-17;0;0;0;0;1.262526e-18;-1.122848e-16;5.677368e-17;45;0;7.569824e-17;7.528092e-17;0;2.173562e-17;2.077192e-18;-1.110223e-16;-1.965843e-17;3.692415;-1.110223e-16;1.110223e-16;0
-15.051377;42.183482;4.181784;0;0;0;0;-1.110223e-16;2.220446e-16;8.776957e-18;0;0;0;0;2.222757e-16;-1.112534e-16;1.667646e-16;45;0;2.223528e-16;1.96087e-16;-1.110223e-16;2.173738e-17;-4.18347e-18;2.220446e-16;-2.592085e-17;4.173549;1.110223e-16;-1.110223e-16;0
-13.438391;42.183482;4.629579;0;0;0;0;0;0;2.518411e-22;0;0;0;0;2.518411e-22;-2.518411e-22;2.518411e-22;45;0;3.357881e-22;2.90801e-22;0;5.036822e-22;0;0;-5.036822e-22;4.603229;0;0;0
-11.825405;42.183482;5.003606;0;0;0;0;-1.110223e-16;0;1.357641e-18;0;0;0;0;1.659949e-20;-1.110389e-16;5.552775e-17;45;0;7.4037e-17;7.403147e-17;-1.110223e-16;2.715282e-18;0;0;-2.715282e-18;4.979545;-1.110223e-16;1.110223e-16;0
-10.212419;42.183482;5.309848;0;0;0;0;0;2.220446e-16;9.796027e-18;0;0;0;0;2.224759e-16;-4.313372e-19;1.114536e-16;45;0;1.486048e-16;1.484613e-16;0;2.172611e-17;-2.134057e-18;2.220446e-16;-2.386017e-17;5.315097;2.220446e-16;-2.220446e-16;0
-8.599433;42.183482;5.632225;0;0;0;0;2.220446e-16;0;-1.357997e-18;0;0;0;0;2.220529e-16;-8.305034e-21;1.110306e-16;45;0;1.480408e-16;1.48038e-16;2.220446e-16;-2.715995e-18;0;0;2.715995e-18;5.638546;2.220446e-16;-2.220446e-16;0
-6.986447;42.183482;5.969416;0;0;0;0;0;2.220446e-16;-1.067541e-18;0;0;0;0;2.220497e-16;-5.132376e-21;1.110274e-16;45;0;1.480366e-16;1.480349e-16;0;0;-2.135081e-18;2.220446e-16;-2.135081e-18;5.954794;2.220446e-16;-2.220446e-16;0
-5.373461;42.183482;6.250717;0;0;0;0;-1.110223e-16;2.220446e-16;9.774537e-18;0;0;0;0;2.223312e-16;-1.113089e-16;1.668201e-16;45;0;2.224267e-16;1.961499e-16;-1.110223e-16;2.169843e-17;-2.149362e-18;2.220446e-16;-2.38478e-17;6.234533;1.110223e-16;-1.110223e-16;0
-3.760475;42.183482;6.452122;0;0;0;0;0;2.220446e-16;-4.026238e-19;0;0;0;0;2.220453e-16;-7.300576e-22;1.11023e-16;45;0;1.480307e-16;1.480305e-16;0;1.354044e-18;-2.159291e-18;2.220446e-16;-3.513335e-18;6.460676;2.220446e-16;-2.220446e-16;0
-2.147489;42.183482;6.623332;0;0;0;0;0;2.220446e-16;-1.082569e-18;0;0;0;0;2.220499e-16;-5.277894e-21;1.110276e-16;45;0;1.480368e-16;1.48035e-16;0;0;-2.165138e-18;2.220446e-16;-2.165138e-18;6.633645;2.220446e-16;-2.220446e-16;0
-0.534503;42.183482;6.748996;0;0;0;0;-1.110223e-16;2.220446e-16;2.13785e-17;0;0;0;0;2.234112e-16;-1.123889e-16;1.679001e-16;45;0;2.238668e-16;1.973747e-16;-1.110223e-16;4.384321e-17;-1.08621e-18;2.220446e-16;-4.492942e-17;6.74093;1.110223e-16;-1.110223e-16;0
1.078483;42.183482;6.776022;0;0;0;0;0;0;2.162144e-17;0;0;0;0;2.162144e-17;-2.162144e-17;2.162144e-17;45;0;2.882858e-17;2.496628e-17;0;4.324287e-17;0;0;-4.324287e-17;6.78693;0;0;0
2.691469;42.183482;6.778909;0;0;0;0;2.220446e-16;0;2.117692e-20;0;0;0;0;2.220446e-16;-2.019694e-24;1.110223e-16;45;0;1.480297e-16;1.480297e-16;2.220446e-16;4.235385e-20;0;0;-4.235385e-20;6.786734;2.220446e-16;-2.220446e-16;0
4.304455;42.183482;6.775859;0;0;0;0;-1.110223e-16;2.220446e-16;1.09079e-17;0;0;0;0;2.224014e-16;-1.113792e-16;1.668903e-16;45;0;2.225204e-16;1.962296e-16;-1.110223e-16;2.1544e-17;2.718077e-19;2.220446e-16;-2.127219e-17;6.766759;1.110223e-16;-1.110223e-16;0
5.917441;42.183482;6.737187;0;0;0;0;0;0;-1.696782e-19;0;0;0;0;1.696782e-19;-1.696782e-19;1.696782e-19;45;0;2.262375e-19;1.959275e-19;0;-3.393563e-19;0;0;3.393563e-19;6.716844;0;0;0
7.530427;42.183482;6.639775;0;0;0;0;0;2.220446e-16;5.420682e-19;0;0;0;0;2.220459e-16;-1.32332e-21;1.110236e-16;45;0;1.480315e-16;1.480311e-16;0;0;1.084136e-18;2.220446e-16;1.084136e-18;6.620163;2.220446e-16;-2.220446e-16;0
9.143413;42.183482;6.487616;0;0;0;0;0;-1.110223e-16;-1.13938e-17;0;0;0;0;1.15724e-18;-1.121795e-16;5.666839e-17;45;0;7.555785e-17;7.517508e-17;0;-2.170628e-17;-1.081323e-18;-1.110223e-16;2.062495e-17;6.474503;-1.110223e-16;1.110223e-16;0
10.756399;42.183482;6.298635;0;0;0;0;2.220446e-16;-1.110223e-16;1.389765e-19;0;0;0;0;2.220447e-16;-1.110224e-16;1.665335e-16;45;0;2.220447e-16;1.95825e-16;2.220446e-16;1.35656e-18;-1.078607e-18;-1.110223e-16;-2.435167e-18;6.287161;1.110223e-16;-1.110223e-16;0
12.369385;42.183482;6.078066;0;0;0;0;-1.110223e-16;0;1.017687e-17;0;0;0;0;9.251548e-19;-1.119475e-16;5.64363e-17;45;0;7.524841e-17;7.494193e-17;-1.110223e-16;2.035374e-17;0;0;-2.035374e-17;6.059784;-1.110223e-16;1.110223e-16;0
13.982371;42.183482;5.807723;0;0;0;0;2.220446e-16;0;1.357223e-18;0;0;0;0;2.220529e-16;-8.295562e-21;1.110306e-16;45;0;1.480408e-16;1.48038e-16;2.220446e-16;2.714445e-18;0;0;-2.714445e-18;5.788041;2.220446e-16;-2.220446e-16;0
15.595357;42.183482;5.484808;0;0;0;0;-1.110223e-16;0;-1.221694e-17;0;0;0;0;1.328461e-18;-1.123508e-16;5.683961e-17;45;0;7.578615e-17;7.534723e-17;-1.110223e-16;-2.443388e-17;0;0;2.443388e-17;5.467473;-1.110223e-16;1.110223e-16;0
17.208343;42.183482;5.115051;0;0;0;0;2.220446e-16;2.220446e-16;3.470875e-18;0;0;0;0;2.255155e-16;2.185737e-16;3.470875e-18;45;0;4.627834e-18;1.48084e-16;2.220446e-16;2.715146e-18;4.226604e-18;2.220446e-16;1.511458e-18;5.099634;4.440892e-16;-4.440892e-16;0
18.821329;42.183482;4.701978;0;0;0;0;2.220446e-16;-1.110223e-16;3.083144e-19;0;0;0;0;2.220449e-16;-1.110226e-16;1.665337e-16;45;0;2.22045e-16;1.958253e-16;2.220446e-16;2.715629e-18;-2.099e-18;-1.110223e-16;-4.81463e-18;4.686066;1.110223e-16;-1.110223e-16;0
20.434315;42.183482;4.242485;0;0;0;0;2.220446e-16;0;1.357892e-18;0;0;0;0;2.220529e-16;-8.303748e-21;1.110306e-16;45;0;1.480408e-16;1.48038e-16;2.220446e-16;2.715784e-18;0;0;-2.715784e-18;4.225669;2.220446e-16;-2.220446e-16;0
22.047301;42.183482;3.733716;0;0;0;0;-1.110223e-16;-1.110223e-16;-3.421784e-18;0;0;0;0;-1.076005e-16;-1.144441e-16;3.421784e-18;45;0;4.562379e-18;7.412025e-17;-1.110223e-16;-2.715854e-18;-4.127714e-18;-1.110223e-16;-1.41186e-18;3.716212;-2.220446e-16;2.220446e-16;0
23.660287;42.183482;3.172531;0;0;0;0;0;0;-1.086594e-17;0;0;0;0;1.086594e-17;-1.086594e-17;1.086594e-17;45;0;1.448792e-17;1.254691e-17;0;-2.173188e-17;0;0;2.173188e-17;3.15635;0;0;0
25.273273;42.183482;2.560393;0;0;0;0;0;2.220446e-16;2.022339e-18;0;0;0;0;2.22063e-16;-1.841754e-20;1.110407e-16;45;0;1.480543e-16;1.480482e-16;0;0;4.044678e-18;2.220446e-16;4.044678e-18;2.545634;2.220446e-16;-2.220446e-16;0
26.886259;42.183482;1.898179;0;0;0;0;2.220446e-16;-1.110223e-16;7.163864e-19;0;0;0;0;2.220461e-16;-1.110238e-16;1.66535e-16;45;0;2.220467e-16;1.958267e-16;2.220446e-16;5.433588e-18;-4.000815e-18;-1.110223e-16;-9.434404e-18;1.884425;1.110223e-16;-1.110223e-16;0
28.499246;42.183482;1.18748;0;0;0;0;0;2.220446e-16;-8.896083e-18;0;0;0;0;2.224004e-16;-3.558459e-19;1.113781e-16;45;0;1.485042e-16;1.483857e-16;0;-2.173786e-17;3.945694e-18;2.220446e-16;2.568355e-17;1.166253;2.220446e-16;-2.220446e-16;0
30.112232;42.183482;0.405545;0;0;0;0;0;-1.110223e-16;-1.950184e-18;0;0;0;0;3.424578e-20;-1.110566e-16;5.55454e-17;45;0;7.406053e-17;7.404912e-17;0;0;-3.900368e-18;-1.110223e-16;-3.900368e-18;0.399627;-1.110223e-16;1.110223e-16;0
31.725218;42.183482;-0.40208;0;0;0;0;2.220446e-16;-1.110223e-16;1.577245e-19;0;0;0;0;2.220447e-16;-1.110224e-16;1.665335e-16;45;0;2.220447e-16;1.95825e-16;2.220446e-16;5.810175e-18;-5.494726e-18;-1.110223e-16;-1.13049e-17;-0.398829;1.110223e-16;-1.110223e-16;0
-44.085126;40.570496;-14.467215;0;0;0;0;0;0;2.724221e-18;0;0;0;0;2.724221e-18;-2.724221e-18;2.724221e-18;45;0;3.632295e-18;3.14566e-18;0;5.448442e-18;0;0;-5.448442e-18;-14.47205;0;0;0
-42.47214;40.570496;-12.708568;0;0;0;0;-2.220446e-16;0;-3.80303e-17;0;0;0;0;6.33295e-18;-2.283776e-16;1.173553e-16;45;0;1.564737e-16;1.54406e-16;-2.220446e-16;-7.60606e-17;0;0;7.60606e-17;-12.739709;-2.220446e-16;2.220446e-16;0
-40.859154;40.570496;-11.044065;0;0;0;0;0;2.220446e-16;-3.081596e-18;0;0;0;0;2.220874e-16;-4.2759e-20;1.110651e-16;45;0;1.480867e-16;1.480725e-16;0;0;-6.163192e-18;2.220446e-16;-6.163192e-18;-11.085007;2.220446e-16;-2.220446e-16;0
-39.246168;40.570496;-9.502022;0;0;0;0;-2.220446e-16;-1.110223e-16;7.042603e-18;0;0;0;0;-1.105773e-16;-2.224896e-16;5.595611e-17;45;0;7.460814e-17;1.284552e-16;-2.220446e-16;1.089056e-17;3.194648e-18;-1.110223e-16;-7.69591e-18;-9.538099;-3.330669e-16;3.330669e-16;0
-37.633182;40.570496;-8.076175;0;0;0;0;0;0;0;0;0;0;0;0;0;0;45;0;0;0;0;0;0;0;0;-8.095817;0;0;0
-36.020196;40.570496;-6.728146;0;0;0;0;0;0;1.089e-17;0;0;0;0;1.089e-17;-1.089e-17;1.089e-17;45;0;1.452e-17;1.257469e-17;0;2.177999e-17;0;0;-2.177999e-17;-6.755384;0;0;0
-34.40721;40.570496;-5.479933;0;0;0;0;-1.110223e-16;0;-1.905281e-17;0;0;0;0;3.17869e-18;-1.14201e-16;5.868984e-17;45;0;7.825312e-17;7.721537e-17;-1.110223e-16;-3.810562e-17;0;0;3.810562e-17;-5.505197;-1.110223e-16;1.110223e-16;0
-32.794224;40.570496;-4.319189;0;0;0;0;2.220446e-16;2.220446e-16;-1.718018e-17;0;0;0;0;2.392248e-16;2.048644e-16;1.718018e-17;45;0;2.29069e-17;1.493531e-16;2.220446e-16;-2.721043e-17;-7.149924e-18;2.220446e-16;2.00605e-17;-4.346942;4.440892e-16;-4.440892e-16;0
-31.181238;40.570496;-3.247857;0;0;0;0;0;2.220446e-16;3.082313e-17;0;0;0;0;2.262439e-16;-4.199297e-18;1.152216e-16;45;0;1.536288e-16;1.522483e-16;0;6.529768e-17;-3.65143e-18;2.220446e-16;-6.894912e-17;-3.265486;2.220446e-16;-2.220446e-16;0
-29.568251;40.570496;-2.232974;0;0;0;0;0;2.220446e-16;9.022027e-18;0;0;0;0;2.224106e-16;-3.659762e-19;1.113883e-16;45;0;1.485177e-16;1.483959e-16;0;2.176265e-17;-3.718598e-18;2.220446e-16;-2.548125e-17;-2.257713;2.220446e-16;-2.220446e-16;0
-27.955265;40.570496;-1.290529;0;0;0;0;-1.110223e-16;0;-1.087848e-17;0;0;0;0;1.055882e-18;-1.120782e-16;5.656703e-17;45;0;7.542271e-17;7.507322e-17;-1.110223e-16;-2.175696e-17;0;0;2.175696e-17;-1.321378;-1.110223e-16;1.110223e-16;0
-26.342279;40.570496;-0.433521;0;0;0;0;0;-1.110223e-16;1.9324e-18;0;0;0;0;3.362421e-20;-1.110559e-16;5.554477e-17;45;0;7.40597e-17;7.404849e-17;0;0;3.864799e-18;-1.110223e-16;3.864799e-18;-0.453937;-1.110223e-16;1.110223e-16;0
-24.729293;40.570496;0.370512;0;0;0;0;2.220446e-16;-1.110223e-16;-1.163713e-17;0;0;0;0;2.224507e-16;-1.114284e-16;1.669396e-16;45;0;2.225861e-16;1.962854e-16;2.220446e-16;-2.718518e-17;3.91093e-18;-1.110223e-16;3.109611e-17;0.354273;1.110223e-16;-1.110223e-16;0
-23.116307;40.570496;1.131725;0;0;0;0;2.220446e-16;2.220446e-16;-1.285491e-17;0;0;0;0;2.348995e-16;2.091897e-16;1.285491e-17;45;0;1.713987e-17;1.487721e-16;2.220446e-16;-2.174839e-17;-3.961416e-18;2.220446e-16;1.778698e-17;1.109752;4.440892e-16;-4.440892e-16;0
-21.503321;40.570496;1.828435;0;0;0;0;0;0;-1.087437e-17;0;0;0;0;1.087437e-17;-1.087437e-17;1.087437e-17;45;0;1.449916e-17;1.255664e-17;0;-2.174874e-17;0;0;2.174874e-17;1.812269;0;0;0
-19.890335;40.570496;2.474064;0;0;0;0;-1.110223e-16;-1.110223e-16;3.386807e-18;0;0;0;0;-1.076355e-16;-1.144091e-16;3.386807e-18;45;0;4.515743e-18;7.411812e-17;-1.110223e-16;2.71799e-18;4.055624e-18;-1.110223e-16;1.337635e-18;2.461026;-2.220446e-16;2.220446e-16;0
-18.277349;40.570496;3.076413;0;0;0;0;-1.110223e-16;2.220446e-16;-1.29211e-17;0;0;0;0;2.225451e-16;-1.115228e-16;1.67034e-16;45;0;2.22712e-16;1.963925e-16;-1.110223e-16;-2.173857e-17;-4.103626e-18;2.220446e-16;1.763494e-17;3.053097;1.110223e-16;-1.110223e-16;0
-16.664363;40.570496;3.608414;0;0;0;0;0;2.220446e-16;-2.380797e-17;0;0;0;0;2.245686e-16;-2.524037e-18;1.135463e-16;45;0;1.513951e-16;1.505608e-16;0;-4.34633e-17;-4.152644e-18;2.220446e-16;3.931066e-17;3.587101;2.220446e-16;-2.220446e-16;0
-15.051377;40.570496;4.081666;0;0;0;0;0;-1.110223e-16;1.04576e-18;0;0;0;0;9.849518e-21;-1.110321e-16;5.5521e-17;45;0;7.4028e-17;7.402472e-17;0;0;2.091519e-18;-1.110223e-16;2.091519e-18;4.069216;-1.110223e-16;1.110223e-16;0
-13.438391;40.570496;4.523912;0;0;0;0;0;0;1.086355e-17;0;0;0;0;1.086355e-17;-1.086355e-17;1.086355e-17;45;0;1.448473e-17;1.254415e-17;0;2.17271e-17;0;0;-2.17271e-17;4.499067;0;0;0
-11.825405;40.570496;4.893446;0;0;0;0;0;0;-1.086255e-17;0;0;0;0;1.086255e-17;-1.086255e-17;1.086255e-17;45;0;1.44834e-17;1.254299e-17;0;-2.17251e-17;0;0;2.17251e-17;4.875679;0;0;0
-10.212419;40.570496;5.206262;0;0;0;0;0;0;0;0;0;0;0;0;0;0;45;0;0;0;0;0;0;0;0;5.212749;0;0;0
-8.599433;40.570496;5.532292;0;0;0;0;0;0;-1.086799e-17;0;0;0;0;1.086799e-17;-1.086799e-17;1.086799e-17;45;0;1.449066e-17;1.254928e-17;0;-2.173598e-17;0;0;2.173598e-17;5.537027;0;0;0
-6.986447;40.570496;5.867504;0;0;0;0;2.220446e-16;-1.110223e-16;3.892934e-19;0;0;0;0;2.220451e-16;-1.110228e-16;1.665339e-16;45;0;2.220452e-16;1.958255e-16;2.220446e-16;-1.357973e-18;2.13656e-18;-1.110223e-16;3.494533e-18;5.849083;1.110223e-16;-1.110223e-16;0
-5.373461;40.570496;6.145977;0;0;0;0;0;0;1.086077e-17;0;0;0;0;1.086077e-17;-1.086077e-17;1.086077e-17;45;0;1.448103e-17;1.254094e-17;0;2.172154e-17;0;0;-2.172154e-17;6.119917;0;0;0
-3.760475;40.570496;6.348452;0;0;0;0;2.220446e-16;2.220446e-16;-1.758928e-18;0;0;0;0;2.238035e-16;2.202857e-16;1.758928e-18;45;0;2.345238e-18;1.480437e-16;2.220446e-16;-1.357246e-18;-2.160611e-18;2.220446e-16;-8.03365e-19;6.334902;4.440892e-16;-4.440892e-16;0
-2.147489;40.570496;6.514229;0;0;0;0;0;0;3.391952e-19;0;0;0;0;3.391952e-19;-3.391952e-19;3.391952e-19;45;0;4.522602e-19;3.916688e-19;0;6.783903e-19;0;0;-6.783903e-19;6.493161;0;0;0
-0.534503;40.570496;6.615448;0;0;0;0;2.220446e-16;0;-3.388519e-19;0;0;0;0;2.220451e-16;-5.171049e-22;1.110228e-16;45;0;1.480304e-16;1.480303e-16;2.220446e-16;-6.777039e-19;0;0;6.777039e-19;6.596435;2.220446e-16;-2.220446e-16;0
1.078483;40.570496;6.650674;0;0;0;0;0;2.220446e-16;1.079927e-17;0;0;0;0;2.225686e-16;-5.239923e-19;1.115463e-16;45;0;1.487284e-16;1.48554e-16;0;2.187033e-17;-2.717934e-19;2.220446e-16;-2.214213e-17;6.651585;2.220446e-16;-2.220446e-16;0
2.691469;40.570496;6.674909;0;0;0;0;0;2.220446e-16;2.168818e-17;0;0;0;0;2.241432e-16;-2.098558e-18;1.131209e-16;45;0;1.508278e-16;1.501332e-16;0;4.344433e-17;-6.795854e-20;2.220446e-16;-4.351229e-17;6.670247;2.220446e-16;-2.220446e-16;0
4.304455;40.570496;6.674065;0;0;0;0;0;0;-4.684767e-24;0;0;0;0;4.684767e-24;-4.684767e-24;4.684767e-24;45;0;6.246356e-24;5.409503e-24;0;-9.369534e-24;0;0;9.369534e-24;6.660244;0;0;0
5.917441;40.570496;6.62706;0;0;0;0;-1.110223e-16;0;-3.392303e-19;0;0;0;0;1.036514e-21;-1.110233e-16;5.551219e-17;45;0;7.401625e-17;7.40159e-17;-1.110223e-16;-6.784607e-19;0;0;6.784607e-19;6.609592;-1.110223e-16;1.110223e-16;0
7.530427;40.570496;6.526748;0;0;0;0;0;2.220446e-16;1.105608e-17;0;0;0;0;2.225937e-16;-5.491484e-19;1.115714e-16;45;0;1.487619e-16;1.485792e-16;0;2.102813e-17;1.084035e-18;2.220446e-16;-1.99441e-17;6.509579;2.220446e-16;-2.220446e-16;0
9.143413;40.570496;6.373956;0;0;0;0;2.220446e-16;-1.110223e-16;-1.071617e-17;0;0;0;0;2.22389e-16;-1.113667e-16;1.668779e-16;45;0;2.225039e-16;1.962155e-16;2.220446e-16;-2.035108e-17;-1.081269e-18;-1.110223e-16;1.926981e-17;6.362361;1.110223e-16;-1.110223e-16;0
10.756399;40.570496;6.183085;0;0;0;0;0;-1.110223e-16;1.031501e-17;0;0;0;0;9.502271e-19;-1.119725e-16;5.646138e-17;45;0;7.528184e-17;7.49671e-17;0;2.170862e-17;-1.078607e-18;-1.110223e-16;-2.278723e-17;6.175032;-1.110223e-16;1.110223e-16;0
12.369385;40.570496;5.963251;0;0;0;0;2.220446e-16;0;-1.017609e-17;0;0;0;0;2.2251e-16;-4.653847e-19;1.114877e-16;45;0;1.486502e-16;1.484954e-16;2.220446e-16;-2.035217e-17;0;0;2.035217e-17;5.948095;2.220446e-16;-2.220446e-16;0
13.982371;40.570496;5.694203;0;0;0;0;0;-1.110223e-16;-1.192462e-17;0;0;0;0;1.266348e-18;-1.122887e-16;5.67775e-17;45;0;7.570333e-17;7.528476e-17;0;-2.171045e-17;-2.138785e-18;-1.110223e-16;1.957167e-17;5.676865;-1.110223e-16;1.110223e-16;0
15.595357;40.570496;5.372185;0;0;0;0;0;2.220446e-16;1.063233e-18;0;0;0;0;2.220497e-16;-5.091043e-21;1.110274e-16;45;0;1.480365e-16;1.480348e-16;0;0;2.126466e-18;2.220446e-16;2.126466e-18;5.356835;2.220446e-16;-2.220446e-16;0
17.208343;40.570496;5.006128;0;0;0;0;0;2.220446e-16;2.113783e-18;0;0;0;0;2.220647e-16;-2.01206e-20;1.110424e-16;45;0;1.480566e-16;1.480499e-16;0;-1.708115e-22;4.227736e-18;2.220446e-16;4.227907e-18;4.989832;2.220446e-16;-2.220446e-16;0
18.821329;40.570496;4.595266;0;0;0;0;0;0;-2.17229e-17;0;0;0;0;2.17229e-17;-2.17229e-17;2.17229e-17;45;0;2.896386e-17;2.508344e-17;0;-4.344579e-17;0;0;4.344579e-17;4.57715;0;0;0
20.434315;40.570496;4.134427;0;0;0;0;-1.110223e-16;0;-1.222072e-17;0;0;0;0;1.329273e-18;-1.123516e-16;5.684042e-17;45;0;7.578723e-17;7.534805e-17;-1.110223e-16;-2.444143e-17;0;0;2.444143e-17;4.11669;-1.110223e-16;1.110223e-16;0
22.047301;40.570496;3.622976;0;0;0;0;2.220446e-16;0;-2.037051e-17;0;0;0;0;2.238979e-16;-1.853334e-18;1.128756e-16;45;0;1.505009e-16;1.498869e-16;2.220446e-16;-4.074101e-17;0;0;4.074101e-17;3.606728;2.220446e-16;-2.220446e-16;0
23.660287;40.570496;3.064236;0;0;0;0;-1.110223e-16;2.220446e-16;-8.822167e-18;0;0;0;0;2.222781e-16;-1.112558e-16;1.66767e-16;45;0;2.22356e-16;1.960897e-16;-1.110223e-16;-2.17319e-17;4.087565e-18;2.220446e-16;2.581947e-17;3.046217;1.110223e-16;-1.110223e-16;0
25.273273;40.570496;2.453364;0;0;0;0;2.220446e-16;-1.110223e-16;-2.10412e-17;0;0;0;0;2.233686e-16;-1.123463e-16;1.678574e-16;45;0;2.238099e-16;1.973264e-16;2.220446e-16;-3.803824e-17;-4.044157e-18;-1.110223e-16;3.399408e-17;2.434879;1.110223e-16;-1.110223e-16;0
26.886259;40.570496;1.790779;0;0;0;0;0;0;2.173758e-17;0;0;0;0;2.173758e-17;-2.173758e-17;2.173758e-17;45;0;2.898344e-17;2.510039e-17;0;4.347515e-17;0;0;-4.347515e-17;1.771942;0;0;0
28.499246;40.570496;1.076039;0;0;0;0;2.220446e-16;-1.110223e-16;7.441916e-19;0;0;0;0;2.220463e-16;-1.11024e-16;1.665351e-16;45;0;2.220468e-16;1.958268e-16;2.220446e-16;5.434101e-18;-3.945718e-18;-1.110223e-16;-9.37982e-18;1.053192;1.110223e-16;-1.110223e-16;0
30.112232;40.570496;0.29845;0;0;0;0;0;0;0;0;0;0;0;0;0;0;45;0;0;0;0;0;0;0;0;0.286629;0;0;0
31.725218;40.570496;-0.505841;0;0;0;0;-2.220446e-16;0;-1.697602e-17;0;0;0;0;1.290372e-18;-2.23335e-16;1.123127e-16;45;0;1.497502e-16;1.49322e-16;-2.220446e-16;-3.395204e-17;0;0;3.395204e-17;-0.510662;-2.220446e-16;2.220446e-16;0
-42.47214;38.95751;-12.813011;0;0;0;0;0;0;0;0;0;0;0;0;0;0;45;0;0;0;0;0;0;0;0;-12.834789;0;0;0
-40.859154;38.95751;-11.158314;0;0;0;0;0;0;0;0;0;0;0;0;0;0;45;0;0;0;0;0;0;0;0;-11.189649;0;0;0
-39.246168;38.95751;-9.605575;0;0;0;0;0;0;-1.089345e-17;0;0;0;0;1.089345e-17;-1.089345e-17;1.089345e-17;45;0;1.45246e-17;1.257867e-17;0;-2.17869e-17;0;0;2.17869e-17;-9.640005;0;0;0
-37.633182;38.95751;-8.162263;0;0;0;0;0;-1.110223e-16;1.644504e-18;0;0;0;0;2.435366e-20;-1.110467e-16;5.55355e-17;45;0;7.404734e-17;7.403922e-17;0;0;3.289007e-18;-1.110223e-16;3.289007e-18;-8.193377;-1.110223e-16;1.110223e-16;0
-36.020196;38.95751;-6.81489;0;0;0;0;0;0;-1.08927e-17;0;0;0;0;1.08927e-17;-1.08927e-17;1.08927e-17;45;0;1.452361e-17;1.257781e-17;0;-2.178541e-17;0;0;2.178541e-17;-6.852036;0;0;0
-34.40721;38.95751;-5.579743;0;0;0;0;0;0;0;0;0;0;0;0;0;0;45;0;0;0;0;0;0;0;0;-5.604576;0;0;0
-32.794224;38.95751;-4.420104;0;0;0;0;0;0;-1.088659e-17;0;0;0;0;1.088659e-17;-1.088659e-17;1.088659e-17;45;0;1.451545e-17;1.257075e-17;0;-2.177318e-17;0;0;2.177318e-17;-4.448257;0;0;0
-31.181238;38.95751;-3.34907;0;0;0;0;0;-1.110223e-16;1.825807e-18;0;0;0;0;3.001804e-20;-1.110523e-16;5.554117e-17;45;0;7.405489e-17;7.404489e-17;0;0;3.651615e-18;-1.110223e-16;3.651615e-18;-3.366751;-1.110223e-16;1.110223e-16;0
-29.568251;38.95751;-2.335128;0;0;0;0;-1.110223e-16;0;2.720112e-18;0;0;0;0;6.660438e-20;-1.110889e-16;5.557776e-17;45;0;7.410368e-17;7.408148e-17;-1.110223e-16;5.440223e-18;0;0;-5.440223e-18;-2.360761;-1.110223e-16;1.110223e-16;0
-27.955265;38.95751;-1.402243;0;0;0;0;-1.110223e-16;-1.110223e-16;-6.256768e-18;0;0;0;0;-1.047655e-16;-1.172791e-16;6.256768e-18;45;0;8.342357e-18;7.436664e-17;-1.110223e-16;-1.631585e-17;3.802318e-18;-1.110223e-16;2.011817e-17;-1.426905;-2.220446e-16;2.220446e-16;0
-26.342279;38.95751;-0.548863;0;0;0;0;-1.110223e-16;2.220446e-16;-3.455507e-17;0;0;0;0;2.255918e-16;-1.145695e-16;1.700807e-16;45;0;2.267743e-16;1.998486e-16;-1.110223e-16;-6.52465e-17;-3.863635e-18;2.220446e-16;6.138287e-17;-0.560644;1.110223e-16;-1.110223e-16;0
-24.729293;38.95751;0.261717;0;0;0;0;0;0;0;0;0;0;0;0;0;0;45;0;0;0;0;0;0;0;0;0.248418;0;0;0
-23.116307;38.95751;1.027205;0;0;0;0;-1.110223e-16;2.220446e-16;7.386924e-19;0;0;0;0;2.220462e-16;-1.110239e-16;1.665351e-16;45;0;2.220468e-16;1.958268e-16;-1.110223e-16;5.436252e-18;-3.958867e-18;2.220446e-16;-9.395119e-18;1.006172;1.110223e-16;-1.110223e-16;0
-21.503321;38.95751;1.729678;0;0;0;0;2.220446e-16;0;-1.223331e-17;0;0;0;0;2.227165e-16;-6.719475e-19;1.116943e-16;45;0;1.489257e-16;1.487022e-16;2.220446e-16;-2.446662e-17;0;0;2.446662e-17;1.710596;2.220446e-16;-2.220446e-16;0
-19.890335;38.95751;2.377746;0;0;0;0;-1.110223e-16;-1.110223e-16;1.426177e-17;0;0;0;0;-9.676053e-17;-1.252841e-16;1.426177e-17;45;0;1.90157e-17;7.582479e-17;-1.110223e-16;2.446634e-17;4.057203e-18;-1.110223e-16;-2.040914e-17;2.359421;-2.220446e-16;2.220446e-16;0
-18.277349;38.95751;2.972;0;0;0;0;0;-1.110223e-16;2.054019e-18;0;0;0;0;3.798831e-20;-1.110603e-16;5.554914e-17;45;0;7.406552e-17;7.405286e-17;0;0;4.108037e-18;-1.110223e-16;4.108037e-18;2.94932;-1.110223e-16;1.110223e-16;0
-16.664363;38.95751;3.496642;0;0;0;0;2.220446e-16;-1.110223e-16;-2.204924e-17;0;0;0;0;2.234979e-16;-1.124756e-16;1.679868e-16;45;0;2.239824e-16;1.974731e-16;2.220446e-16;-4.617513e-17;2.076655e-18;-1.110223e-16;4.825178e-17;3.481495;1.110223e-16;-1.110223e-16;0
-15.051377;38.95751;3.972209;0;0;0;0;2.220446e-16;0;-1.358044e-18;0;0;0;0;2.220529e-16;-8.305599e-21;1.110306e-16;45;0;1.480408e-16;1.48038e-16;2.220446e-16;-2.716087e-18;0;0;2.716087e-18;3.963829;2.220446e-16;-2.220446e-16;0
-13.438391;38.95751;4.416804;0;0;0;0;0;0;-2.173078e-17;0;0;0;0;2.173078e-17;-2.173078e-17;2.173078e-17;45;0;2.897437e-17;2.509254e-17;0;-4.346155e-17;0;0;4.346155e-17;4.394283;0;0;0
-11.825405;38.95751;4.788597;0;0;0;0;0;0;0;0;0;0;0;0;0;0;45;0;0;0;0;0;0;0;0;4.771488;0;0;0
-10.212419;38.95751;5.109058;0;0;0;0;-1.110223e-16;-1.110223e-16;2.415504e-17;0;0;0;0;-8.686727e-17;-1.351773e-16;2.415504e-17;45;0;3.220671e-17;7.909586e-17;-1.110223e-16;4.61782e-17;2.131872e-18;-1.110223e-16;-4.404633e-17;5.110476;-2.220446e-16;2.220446e-16;0
-8.599433;38.95751;5.439403;0;0;0;0;2.220446e-16;2.220446e-16;-1.065147e-18;0;0;0;0;2.231097e-16;2.209795e-16;1.065147e-18;45;0;1.420196e-18;1.480348e-16;2.220446e-16;0;-2.130293e-18;2.220446e-16;-2.130293e-18;5.436814;4.440892e-16;-4.440892e-16;0
-6.986447;38.95751;5.76723;0;0;0;0;2.220446e-16;2.220446e-16;-1.747842e-18;0;0;0;0;2.237925e-16;2.202968e-16;1.747842e-18;45;0;2.330455e-18;1.480435e-16;2.220446e-16;-1.357914e-18;-2.137769e-18;2.220446e-16;-7.79855e-19;5.748144;4.440892e-16;-4.440892e-16;0
-5.373461;38.95751;6.03699;0;0;0;0;-1.110223e-16;0;6.787591e-19;0;0;0;0;4.149586e-21;-1.110265e-16;5.55153e-17;45;0;7.40204e-17;7.401902e-17;-1.110223e-16;1.357518e-18;0;0;-1.357518e-18;6.016311;-1.110223e-16;1.110223e-16;0
-3.760475;38.95751;6.240845;0;0;0;0;2.220446e-16;0;1.017942e-17;0;0;0;0;2.225103e-16;-4.656888e-19;1.11488e-16;45;0;1.486507e-16;1.484957e-16;2.220446e-16;2.035884e-17;0;0;-2.035884e-17;6.22758;2.220446e-16;-2.220446e-16;0
-2.147489;38.95751;6.401452;0;0;0;0;2.220446e-16;0;1.05152e-17;0;0;0;0;2.225414e-16;-4.968483e-19;1.115192e-16;45;0;1.486922e-16;1.485269e-16;2.220446e-16;2.103039e-17;0;0;-2.103039e-17;6.380939;2.220446e-16;-2.220446e-16;0
-0.534503;38.95751;6.493576;0;0;0;0;-1.110223e-16;0;3.392335e-19;0;0;0;0;1.036533e-21;-1.110233e-16;5.551219e-17;45;0;7.401625e-17;7.40159e-17;-1.110223e-16;6.78467e-19;0;0;-6.78467e-19;6.483858;-1.110223e-16;1.110223e-16;0
1.078483;38.95751;6.544182;0;0;0;0;-1.110223e-16;-1.110223e-16;3.056229e-19;0;0;0;0;-1.107167e-16;-1.113279e-16;3.056229e-19;45;0;4.074972e-19;7.401571e-17;-1.110223e-16;3.395017e-19;2.71744e-19;-1.110223e-16;-6.775771e-20;6.544497;-2.220446e-16;2.220446e-16;0
2.691469;38.95751;6.581547;0;0;0;0;0;-1.110223e-16;3.397858e-20;0;0;0;0;1.039921e-23;-1.110223e-16;5.551116e-17;45;0;7.401488e-17;7.401488e-17;0;0;6.795717e-20;-1.110223e-16;6.795717e-20;6.57031;-1.110223e-16;1.110223e-16;0
4.304455;38.95751;6.576054;0;0;0;0;-1.110223e-16;0;1.078078e-17;0;0;0;0;1.037174e-18;-1.120595e-16;5.654832e-17;45;0;7.539776e-17;7.505443e-17;-1.110223e-16;2.156156e-17;0;0;-2.156156e-17;6.559928;-1.110223e-16;1.110223e-16;0
5.917441;38.95751;6.516606;0;0;0;0;2.220446e-16;-1.110223e-16;-1.079149e-17;0;0;0;0;2.223939e-16;-1.113716e-16;1.668827e-16;45;0;2.225103e-16;1.96221e-16;2.220446e-16;-2.103998e-17;-5.429936e-19;-1.110223e-16;2.049698e-17;6.504011;1.110223e-16;-1.110223e-16;0
7.530427;38.95751;6.412971;0;0;0;0;-1.110223e-16;-1.110223e-16;9.975955e-18;0;0;0;0;-1.010463e-16;-1.209983e-16;9.975955e-18;45;0;1.330127e-17;7.49059e-17;-1.110223e-16;2.103595e-17;-1.08404e-18;-1.110223e-16;-2.211999e-17;6.400659;-2.220446e-16;2.220446e-16;0
9.143413;38.95751;6.264295;0;0;0;0;0;2.220446e-16;5.406876e-19;0;0;0;0;2.220459e-16;-1.316589e-21;1.110236e-16;45;0;1.480315e-16;1.480311e-16;0;0;1.081375e-18;2.220446e-16;1.081375e-18;6.253305;2.220446e-16;-2.220446e-16;0
10.756399;38.95751;6.074173;0;0;0;0;0;-1.110223e-16;-5.392734e-19;0;0;0;0;2.619374e-21;-1.110249e-16;5.551377e-17;45;0;7.401836e-17;7.401748e-17;0;0;-1.078547e-18;-1.110223e-16;-1.078547e-18;6.066192;-1.110223e-16;1.110223e-16;0
12.369385;38.95751;5.852211;0;0;0;0;-1.110223e-16;2.220446e-16;3.961881e-19;0;0;0;0;2.220451e-16;-1.110228e-16;1.665339e-16;45;0;2.220452e-16;1.958255e-16;-1.110223e-16;-1.357273e-18;2.149649e-18;2.220446e-16;3.506923e-18;5.838414;1.110223e-16;-1.110223e-16;0
13.982371;38.95751;5.581501;0;0;0;0;0;2.220446e-16;2.278625e-17;0;0;0;0;2.243588e-16;-2.314209e-18;1.133365e-16;45;0;1.511153e-16;1.503499e-16;0;4.343399e-17;2.138504e-18;2.220446e-16;-4.129549e-17;5.566031;2.220446e-16;-2.220446e-16;0
15.595357;38.95751;5.25784;0;0;0;0;2.220446e-16;0;1.221503e-17;0;0;0;0;2.227146e-16;-6.69947e-19;1.116923e-16;45;0;1.48923e-16;1.487002e-16;2.220446e-16;2.443006e-17;0;0;-2.443006e-17;5.245379;2.220446e-16;-2.220446e-16;0
17.208343;38.95751;4.892075;0;0;0;0;2.220446e-16;0;1.221514e-17;0;0;0;0;2.227146e-16;-6.699586e-19;1.116923e-16;45;0;1.48923e-16;1.487002e-16;2.220446e-16;2.443027e-17;0;0;-2.443027e-17;4.878469;2.220446e-16;-2.220446e-16;0
18.821329;38.95751;4.48316;0;0;0;0;2.220446e-16;-1.110223e-16;2.20267e-17;0;0;0;0;2.23495e-16;-1.124727e-16;1.679838e-16;45;0;2.239784e-16;1.974698e-16;2.220446e-16;4.615297e-17;-2.099569e-18;-1.110223e-16;-4.825254e-17;4.466493;1.110223e-16;-1.110223e-16;0
20.434315;38.95751;4.023775;0;0;0;0;0;0;0;0;0;0;0;0;0;0;45;0;0;0;0;0;0;0;0;4.00664;0;0;0
22.047301;38.95751;3.512431;0;0;0;0;-1.110223e-16;0;9.506486e-18;0;0;0;0;8.081277e-19;-1.118304e-16;5.631928e-17;45;0;7.509237e-17;7.482445e-17;-1.110223e-16;1.901297e-17;0;0;-1.901297e-17;3.497119;-1.110223e-16;1.110223e-16;0
23.660287;38.95751;2.953976;0;0;0;0;0;2.220446e-16;2.043843e-18;0;0;0;0;2.220634e-16;-1.881127e-20;1.110411e-16;45;0;1.480548e-16;1.480485e-16;0;0;4.087687e-18;2.220446e-16;4.087687e-18;2.936803;2.220446e-16;-2.220446e-16;0
25.273273;38.95751;2.342333;0;0;0;0;2.220446e-16;0;2.716642e-18;0;0;0;0;2.220778e-16;-3.323224e-20;1.110555e-16;45;0;1.480741e-16;1.48063e-16;2.220446e-16;5.433284e-18;0;0;-5.433284e-18;2.325382;2.220446e-16;-2.220446e-16;0
26.886259;38.95751;1.67812;0;0;0;0;2.220446e-16;2.220446e-16;-1.702068e-17;0;0;0;0;2.390653e-16;2.050239e-16;1.702068e-17;45;0;2.269423e-17;1.493287e-16;2.220446e-16;-3.803853e-17;3.997175e-18;2.220446e-16;4.20357e-17;1.661299;4.440892e-16;-4.440892e-16;0
28.499246;38.95751;0.960793;0;0;0;0;2.220446e-16;-1.110223e-16;-3.186294e-17;0;0;0;0;2.250654e-16;-1.140431e-16;1.695542e-16;45;0;2.260723e-16;1.992513e-16;2.220446e-16;-5.978095e-17;-3.94493e-18;-1.110223e-16;5.583601e-17;0.941795;1.110223e-16;-1.110223e-16;0
30.112232;38.95751;0.183341;0;0;0;0;0;0;0;0;0;0;0;0;0;0;45;0;0;0;0;0;0;0;0;0.17404;0;0;0
31.725218;38.95751;-0.624064;0;0;0;0;0;0;0;0;0;0;0;0;0;0;45;0;0;0;0;0;0;0;0;-0.62438;0;0;0
-42.47214;37.344524;-12.908793;0;0;0;0;2.220446e-16;2.220446e-16;4.936152e-18;0;0;0;0;2.269808e-16;2.171085e-16;4.936152e-18;45;0;6.581535e-18;1.481394e-16;2.220446e-16;1.848188e-17;-8.609576e-18;2.220446e-16;-2.709146e-17;-12.909589;4.440892e-16;-4.440892e-16;0
-40.859154;37.344524;-11.264761;0;0;0;0;-2.220446e-16;0;1.361702e-17;0;0;0;0;8.319548e-19;-2.228766e-16;1.118543e-16;45;0;1.49139e-16;1.488625e-16;-2.220446e-16;2.723404e-17;0;0;-2.723404e-17;-11.293468;-2.220446e-16;2.220446e-16;0
-39.246168;37.344524;-9.701734;0;0;0;0;2.220446e-16;-1.110223e-16;-3.857595e-18;0;0;0;0;2.220893e-16;-1.11067e-16;1.665781e-16;45;0;2.221042e-16;1.958756e-16;2.220446e-16;-1.089101e-17;3.175823e-18;-1.110223e-16;1.406684e-17;-9.741214;1.110223e-16;-1.110223e-16;0
-37.633182;37.344524;-8.245136;0;0;0;0;0;-1.110223e-16;-2.014233e-17;0;0;0;0;3.541381e-18;-1.145637e-16;5.905253e-17;45;0;7.873671e-17;7.75832e-17;0;-4.356938e-17;3.284711e-18;-1.110223e-16;4.685409e-17;-8.289723;-1.110223e-16;1.110223e-16;0
-36.020196;37.344524;-6.904452;0;0;0;0;2.220446e-16;2.220446e-16;3.744048e-17;0;0;0;0;2.594851e-16;1.846041e-16;3.744048e-17;45;0;4.992064e-17;1.542137e-16;2.220446e-16;8.167896e-17;-6.797999e-18;2.220446e-16;-8.847695e-17;-6.947563;4.440892e-16;-4.440892e-16;0
-34.40721;37.344524;-5.677587;0;0;0;0;2.220446e-16;0;-1.088779e-17;0;0;0;0;2.225772e-16;-5.325971e-19;1.115549e-16;45;0;1.487399e-16;1.485627e-16;2.220446e-16;-2.177558e-17;0;0;2.177558e-17;-5.702489;2.220446e-16;-2.220446e-16;0
-32.794224;37.344524;-4.517138;0;0;0;0;-1.110223e-16;0;-1.905214e-17;0;0;0;0;3.178472e-18;-1.142008e-16;5.868962e-17;45;0;7.825283e-17;7.721515e-17;-1.110223e-16;-3.810428e-17;0;0;3.810428e-17;-4.547082;-1.110223e-16;1.110223e-16;0
-31.181238;37.344524;-3.443696;0;0;0;0;2.220446e-16;2.220446e-16;1.994472e-17;0;0;0;0;2.419893e-16;2.020999e-16;1.994472e-17;45;0;2.659296e-17;1.498105e-16;2.220446e-16;4.354252e-17;-3.653075e-18;2.220446e-16;-4.719559e-17;-3.465929;4.440892e-16;-4.440892e-16;0
-29.568251;37.344524;-2.435603;0;0;0;0;-1.110223e-16;2.220446e-16;-1.274666e-17;0;0;0;0;2.225317e-16;-1.115094e-16;1.670206e-16;45;0;2.226941e-16;1.963773e-16;-1.110223e-16;-2.176544e-17;-3.727868e-18;2.220446e-16;1.803758e-17;-2.462613;1.110223e-16;-1.110223e-16;0
-27.955265;37.344524;-1.509752;0;0;0;0;0;0;-1.087941e-17;0;0;0;0;1.087941e-17;-1.087941e-17;1.087941e-17;45;0;1.450588e-17;1.256246e-17;0;-2.175882e-17;0;0;2.175882e-17;-1.531371;0;0;0
-26.342279;37.344524;-0.653532;0;0;0;0;0;0;0;0;0;0;0;0;0;0;45;0;0;0;0;0;0;0;0;-0.665716;0;0;0
-24.729293;37.344524;0.160413;0;0;0;0;2.220446e-16;0;-2.719032e-18;0;0;0;0;2.220779e-16;-3.329073e-20;1.110556e-16;45;0;1.480741e-16;1.48063e-16;2.220446e-16;-5.438064e-18;0;0;5.438064e-18;0.143038;2.220446e-16;-2.220446e-16;0
-23.116307;37.344524;0.92011;0;0;0;0;2.220446e-16;0;-1.359011e-17;0;0;0;0;2.228733e-16;-8.286817e-19;1.11851e-16;45;0;1.491346e-16;1.488592e-16;2.220446e-16;-2.718022e-17;0;0;2.718022e-17;0.900915;2.220446e-16;-2.220446e-16;0
-21.503321;37.344524;1.625752;0;0;0;0;0;0;0;0;0;0;0;0;0;0;45;0;0;0;0;0;0;0;0;1.606699;0;0;0
-19.890335;37.344524;2.280647;0;0;0;0;-1.110223e-16;2.220446e-16;-1.154151e-17;0;0;0;0;2.224441e-16;-1.114218e-16;1.669329e-16;45;0;2.225772e-16;1.962779e-16;-1.110223e-16;-1.902678e-17;-4.05624e-18;2.220446e-16;1.497054e-17;2.257166;1.110223e-16;-1.110223e-16;0
-18.277349;37.344524;2.870048;0;0;0;0;0;-1.110223e-16;2.276864e-17;0;0;0;0;4.488007e-18;-1.155103e-16;5.999916e-17;45;0;7.999888e-17;7.854563e-17;0;4.348142e-17;2.055867e-18;-1.110223e-16;-4.142555e-17;2.846266;-1.110223e-16;1.110223e-16;0
-16.664363;37.344524;3.387903;0;0;0;0;-1.110223e-16;2.220446e-16;-7.182226e-19;0;0;0;0;2.220462e-16;-1.110239e-16;1.66535e-16;45;0;2.220467e-16;1.958267e-16;-1.110223e-16;2.717021e-18;-4.153466e-18;2.220446e-16;-6.870486e-18;3.377424;1.110223e-16;-1.110223e-16;0
-15.051377;37.344524;3.868159;0;0;0;0;0;2.220446e-16;-2.089091e-18;0;0;0;0;2.220642e-16;-1.965332e-20;1.11042e-16;45;0;1.480559e-16;1.480494e-16;0;2.902192e-23;-4.17821e-18;2.220446e-16;-4.178239e-18;3.861381;2.220446e-16;-2.220446e-16;0
-13.438391;37.344524;4.318755;0;0;0;0;0;0;-1.087096e-17;0;0;0;0;1.087096e-17;-1.087096e-17;1.087096e-17;45;0;1.449461e-17;1.25527e-17;0;-2.174192e-17;0;0;2.174192e-17;4.293409;0;0;0
-11.825405;37.344524;4.685001;0;0;0;0;2.220446e-16;2.220446e-16;-2.422048e-18;0;0;0;0;2.244666e-16;2.196226e-16;2.422048e-18;45;0;3.229398e-18;1.480562e-16;2.220446e-16;-2.716342e-18;-2.127754e-18;2.220446e-16;5.88588e-19;4.669695;4.440892e-16;-4.440892e-16;0
-10.212419;37.344524;5.001559;0;0;0;0;0;-1.110223e-16;1.065839e-18;0;0;0;0;1.023136e-20;-1.110325e-16;5.552138e-17;45;0;7.402851e-17;7.40251e-17;0;0;2.131679e-18;-1.110223e-16;2.131679e-18;5.007361;-1.110223e-16;1.110223e-16;0
-8.599433;37.344524;5.338669;0;0;0;0;0;2.220446e-16;9.796853e-18;0;0;0;0;2.22476e-16;-4.314098e-19;1.114537e-16;45;0;1.48605e-16;1.484614e-16;0;2.17234e-17;-2.129692e-18;2.220446e-16;-2.385309e-17;5.333575;2.220446e-16;-2.220446e-16;0
-6.986447;37.344524;5.66935;0;0;0;0;2.220446e-16;-1.110223e-16;-2.888216e-19;0;0;0;0;2.220448e-16;-1.110226e-16;1.665337e-16;45;0;2.220449e-16;1.958252e-16;2.220446e-16;-2.715659e-18;2.138015e-18;-1.110223e-16;4.853674e-18;5.64487;1.110223e-16;-1.110223e-16;0
-5.373461;37.344524;5.935884;0;0;0;0;-1.110223e-16;2.220446e-16;-3.973238e-19;0;0;0;0;2.220451e-16;-1.110228e-16;1.665339e-16;45;0;2.220452e-16;1.958255e-16;-1.110223e-16;1.357308e-18;-2.151955e-18;2.220446e-16;-3.509263e-18;5.912053;1.110223e-16;-1.110223e-16;0
-3.760475;37.344524;6.134561;0;0;0;0;0;-1.110223e-16;5.403198e-19;0;0;0;0;2.629549e-21;-1.110249e-16;5.551378e-17;45;0;7.401837e-17;7.40175e-17;0;0;1.08064e-18;-1.110223e-16;1.08064e-18;6.122635;-1.110223e-16;1.110223e-16;0
-2.147489;37.344524;6.289832;0;0;0;0;0;0;2.172881e-17;0;0;0;0;2.172881e-17;-2.172881e-17;2.172881e-17;45;0;2.897174e-17;2.509026e-17;0;4.345761e-17;0;0;-4.345761e-17;6.277092;0;0;0
-0.534503;37.344524;6.390052;0;0;0;0;2.220446e-16;0;-1.698202e-19;0;0;0;0;2.220447e-16;-1.298788e-22;1.110224e-16;45;0;1.480299e-16;1.480299e-16;2.220446e-16;-3.396404e-19;0;0;3.396404e-19;6.382832;2.220446e-16;-2.220446e-16;0
1.078483;37.344524;6.455282;0;0;0;0;2.220446e-16;0;-1.103877e-17;0;0;0;0;2.22592e-16;-5.474343e-19;1.115697e-16;45;0;1.487596e-16;1.485775e-16;2.220446e-16;-2.207755e-17;0;0;2.207755e-17;6.445976;2.220446e-16;-2.220446e-16;0
2.691469;37.344524;6.494806;0;0;0;0;2.220446e-16;0;-1.086442e-17;0;0;0;0;2.225749e-16;-5.303183e-19;1.115526e-16;45;0;1.487368e-16;1.485604e-16;2.220446e-16;-2.172883e-17;0;0;2.172883e-17;6.471554;2.220446e-16;-2.220446e-16;0
4.304455;37.344524;6.481273;0;0;0;0;0;-1.110223e-16;-1.099619e-17;0;0;0;0;1.078638e-18;-1.121009e-16;5.658979e-17;45;0;7.545305e-17;7.509609e-17;0;-2.172063e-17;-2.717616e-19;-1.110223e-16;2.144886e-17;6.457476;-1.110223e-16;1.110223e-16;0
5.917441;37.344524;6.413033;0;0;0;0;2.220446e-16;2.220446e-16;2.714445e-19;0;0;0;0;2.223161e-16;2.217732e-16;2.714445e-19;45;0;3.619261e-19;1.480301e-16;2.220446e-16;-4.043349e-23;5.429295e-19;2.220446e-16;5.429699e-19;6.39785;4.440892e-16;-4.440892e-16;0
7.530427;37.344524;6.308294;0;0;0;0;2.220446e-16;0;1.153778e-17;0;0;0;0;2.226425e-16;-5.979111e-19;1.116202e-16;45;0;1.48827e-16;1.486281e-16;2.220446e-16;2.307556e-17;0;0;-2.307556e-17;6.29319;2.220446e-16;-2.220446e-16;0
9.143413;37.344524;6.162965;0;0;0;0;0;2.220446e-16;5.407835e-19;0;0;0;0;2.220459e-16;-1.317056e-21;1.110236e-16;45;0;1.480315e-16;1.480311e-16;0;9.030137e-23;1.081477e-18;2.220446e-16;1.081386e-18;6.146288;2.220446e-16;-2.220446e-16;0
10.756399;37.344524;5.973257;0;0;0;0;0;0;3.725259e-23;0;0;0;0;3.725259e-23;-3.725259e-23;3.725259e-23;45;0;4.967012e-23;4.301558e-23;0;7.450517e-23;0;0;-7.450517e-23;5.959388;0;0;0
12.369385;37.344524;5.748535;0;0;0;0;0;0;0;0;0;0;0;0;0;0;45;0;0;0;0;0;0;0;0;5.730852;0;0;0
13.982371;37.344524;5.475511;0;0;0;0;-1.110223e-16;0;1.018224e-17;0;0;0;0;9.261231e-19;-1.119484e-16;5.643728e-17;45;0;7.52497e-17;7.49429e-17;-1.110223e-16;2.036448e-17;0;0;-2.036448e-17;5.457483;-1.110223e-16;1.110223e-16;0
15.595357;37.344524;5.149046;0;0;0;0;2.220446e-16;2.220446e-16;-9.798737e-18;0;0;0;0;2.318433e-16;2.122459e-16;9.798737e-18;45;0;1.306498e-17;1.484615e-16;2.220446e-16;-2.172339e-17;2.125916e-18;2.220446e-16;2.384931e-17;5.136063;4.440892e-16;-4.440892e-16;0
17.208343;37.344524;4.779923;0;0;0;0;0;2.220446e-16;1.297526e-17;0;0;0;0;2.228002e-16;-7.556427e-19;1.117779e-16;45;0;1.490373e-16;1.48786e-16;0;2.172294e-17;4.227583e-18;2.220446e-16;-1.749536e-17;4.768431;2.220446e-16;-2.220446e-16;0
18.821329;37.344524;4.370603;0;0;0;0;2.220446e-16;-1.110223e-16;-1.055387e-17;0;0;0;0;2.223787e-16;-1.113564e-16;1.668675e-16;45;0;2.2249e-16;1.962038e-16;2.220446e-16;-1.900806e-17;-2.099679e-18;-1.110223e-16;1.690838e-17;4.356101;1.110223e-16;-1.110223e-16;0
20.434315;37.344524;3.913083;0;0;0;0;-1.110223e-16;-1.110223e-16;-1.326226e-17;0;0;0;0;-9.776004e-17;-1.242846e-16;1.326226e-17;45;0;1.768301e-17;7.558252e-17;-1.110223e-16;-2.444187e-17;-2.082649e-18;-1.110223e-16;2.235922e-17;3.89668;-2.220446e-16;2.220446e-16;0
22.047301;37.344524;3.404038;0;0;0;0;0;0;1.222337e-17;0;0;0;0;1.222337e-17;-1.222337e-17;1.222337e-17;45;0;1.629783e-17;1.411433e-17;0;2.444674e-17;0;0;-2.444674e-17;3.387752;0;0;0
23.660287;37.344524;2.845131;0;0;0;0;0;-1.110223e-16;-2.24193e-17;0;0;0;0;4.356309e-18;-1.153786e-16;5.986746e-17;45;0;7.982328e-17;7.841153e-17;0;-4.075112e-17;-4.087472e-18;-1.110223e-16;3.666365e-17;2.827722;-1.110223e-16;1.110223e-16;0
25.273273;37.344524;2.232747;0;0;0;0;0;0;-1.086853e-17;0;0;0;0;1.086853e-17;-1.086853e-17;1.086853e-17;45;0;1.449137e-17;1.254989e-17;0;-2.173705e-17;0;0;2.173705e-17;2.215992;0;0;0
26.886259;37.344524;1.567752;0;0;0;0;2.220446e-16;-1.110223e-16;-3.460841e-17;0;0;0;0;2.256027e-16;-1.145804e-16;1.700915e-16;45;0;2.267887e-16;1.998609e-16;2.220446e-16;-6.522039e-17;-3.996431e-18;-1.110223e-16;6.122396e-17;1.551148;1.110223e-16;-1.110223e-16;0
28.499246;37.344524;0.849764;0;0;0;0;0;0;0;0;0;0;0;0;0;0;45;0;0;0;0;0;0;0;0;0.830858;0;0;0
30.112232;37.344524;0.071113;0;0;0;0;-1.110223e-16;-1.110223e-16;6.204621e-18;0;0;0;0;-1.048177e-16;-1.172269e-16;6.204621e-18;45;0;8.272828e-18;7.436081e-17;-1.110223e-16;1.630819e-17;-3.898951e-18;-1.110223e-16;-2.020715e-17;0.061101;-2.220446e-16;2.220446e-16;0
31.725218;37.344524;-0.743236;0;0;0;0;0;-1.110223e-16;-1.953056e-17;0;0;0;0;3.335519e-18;-1.143578e-16;5.884667e-17;45;0;7.846222e-17;7.737436e-17;0;-2.808895e-17;-1.097216e-17;-1.110223e-16;1.711679e-17;-0.740305;-1.110223e-16;1.110223e-16;0
-42.47214;35.731538;-13.006965;0;0;0;0;-1.110223e-16;2.220446e-16;5.428397e-19;0;0;0;0;2.220455e-16;-1.110232e-16;1.665343e-16;45;0;2.220458e-16;1.958259e-16;-1.110223e-16;9.708558e-18;-8.622879e-18;2.220446e-16;-1.833144e-17;-13.009621;1.110223e-16;-1.110223e-16;0
-40.859154;35.731538;-11.371906;0;0;0;0;-2.220446e-16;0;-5.447448e-18;0;0;0;0;1.335626e-19;-2.221782e-16;1.111559e-16;45;0;1.482078e-16;1.481633e-16;-2.220446e-16;-1.08949e-17;0;0;1.08949e-17;-11.394473;-2.220446e-16;2.220446e-16;0
-39.246168;35.731538;-9.810156;0;0;0;0;-2.220446e-16;0;1.633839e-17;0;0;0;0;1.195765e-18;-2.232404e-16;1.122181e-16;45;0;1.496241e-16;1.492271e-16;-2.220446e-16;3.267678e-17;0;0;-3.267678e-17;-9.841465;-2.220446e-16;2.220446e-16;0
-37.633182;35.731538;-8.351078;0;0;0;0;0;0;-2.178006e-17;0;0;0;0;2.178006e-17;-2.178006e-17;2.178006e-17;45;0;2.904008e-17;2.514945e-17;0;-4.356012e-17;0;0;4.356012e-17;-8.390023;0;0;0
-36.020196;35.731538;-7.012226;0;0;0;0;0;-1.110223e-16;1.700013e-18;0;0;0;0;2.602511e-20;-1.110483e-16;5.553718e-17;45;0;7.404957e-17;7.40409e-17;0;0;3.400026e-18;-1.110223e-16;3.400026e-18;-7.048145;-1.110223e-16;1.110223e-16;0
-34.40721;35.731538;-5.780693;0;0;0;0;-1.110223e-16;-1.110223e-16;-1.730543e-17;0;0;0;0;-9.371687e-17;-1.283277e-16;1.730543e-17;45;0;2.307391e-17;7.666489e-17;-1.110223e-16;-3.810137e-17;3.490504e-18;-1.110223e-16;4.159188e-17;-5.804024;-2.220446e-16;2.220446e-16;0
-32.794224;35.731538;-4.61557;0;0;0;0;0;2.220446e-16;-3.571514e-18;0;0;0;0;2.22102e-16;-5.743177e-20;1.110797e-16;45;0;1.481063e-16;1.480872e-16;0;0;-7.143028e-18;2.220446e-16;-7.143028e-18;-4.648154;2.220446e-16;-2.220446e-16;0
-31.181238;35.731538;-3.540139;0;0;0;0;2.220446e-16;2.220446e-16;-4.547754e-18;0;0;0;0;2.265924e-16;2.174968e-16;4.547754e-18;45;0;6.063673e-18;1.481228e-16;2.220446e-16;-5.44079e-18;-3.654719e-18;2.220446e-16;1.78607e-18;-3.567729;4.440892e-16;-4.440892e-16;0
-29.568251;35.731538;-2.536919;0;0;0;0;0;-1.110223e-16;1.274527e-17;0;0;0;0;1.444355e-18;-1.124667e-16;5.695551e-17;45;0;7.594067e-17;7.546383e-17;0;2.176039e-17;3.730144e-18;-1.110223e-16;-1.803024e-17;-2.565804;-1.110223e-16;1.110223e-16;0
-27.955265;35.731538;-1.610968;0;0;0;0;2.220446e-16;0;-2.719533e-18;0;0;0;0;2.220779e-16;-3.3303e-20;1.110556e-16;45;0;1.480741e-16;1.48063e-16;2.220446e-16;-5.439067e-18;0;0;5.439067e-18;-1.634596;2.220446e-16;-2.220446e-16;0
-26.342279;35.731538;-0.749328;0;0;0;0;-1.110223e-16;0;-2.414041e-22;0;0;0;0;5.249007e-28;-1.110223e-16;5.551115e-17;45;0;7.401487e-17;7.401487e-17;-1.110223e-16;-4.828082e-22;0;0;4.828082e-22;-0.767643;-1.110223e-16;1.110223e-16;0
-24.729293;35.731538;0.061108;0;0;0;0;2.220446e-16;0;3.011338e-22;0;0;0;0;2.220446e-16;-4.083834e-28;1.110223e-16;45;0;1.480297e-16;1.480297e-16;2.220446e-16;6.022677e-22;0;0;-6.022677e-22;0.039983;2.220446e-16;-2.220446e-16;0
-23.116307;35.731538;0.808512;0;0;0;0;0;-1.110223e-16;1.981976e-18;0;0;0;0;3.537107e-20;-1.110577e-16;5.554652e-17;45;0;7.406203e-17;7.405024e-17;0;0;3.963952e-18;-1.110223e-16;3.963952e-18;0.795283;-1.110223e-16;1.110223e-16;0
-21.503321;35.731538;1.513737;0;0;0;0;-1.110223e-16;0;1.358773e-17;0;0;0;0;1.638778e-18;-1.126611e-16;5.714993e-17;45;0;7.61999e-17;7.565956e-17;-1.110223e-16;2.717547e-17;0;0;-2.717547e-17;1.501032;-1.110223e-16;1.110223e-16;0
-19.890335;35.731538;2.1769;0;0;0;0;-1.110223e-16;-1.110223e-16;-7.48669e-18;0;0;0;0;-1.035356e-16;-1.18509e-16;7.48669e-18;45;0;9.982254e-18;7.451801e-17;-1.110223e-16;-1.902587e-17;4.052488e-18;-1.110223e-16;2.307836e-17;2.154322;-2.220446e-16;2.220446e-16;0
-18.277349;35.731538;2.76799;0;0;0;0;-1.110223e-16;2.220446e-16;-6.97137e-19;0;0;0;0;2.220461e-16;-1.110238e-16;1.665349e-16;45;0;2.220466e-16;1.958266e-16;-1.110223e-16;2.717329e-18;-4.111603e-18;2.220446e-16;-6.828931e-18;2.745628;1.110223e-16;-1.110223e-16;0
-16.664363;35.731538;3.286512;0;0;0;0;0;-1.110223e-16;-9.834773e-18;0;0;0;0;8.644701e-19;-1.118868e-16;5.637562e-17;45;0;7.51675e-17;7.4881e-17;0;-2.17454e-17;2.075853e-18;-1.110223e-16;2.382125e-17;3.278182;-1.110223e-16;1.110223e-16;0
-15.051377;35.731538;3.775348;0;0;0;0;0;0;2.174787e-17;0;0;0;0;2.174787e-17;-2.174787e-17;2.174787e-17;45;0;2.899716e-17;2.511228e-17;0;4.349574e-17;0;0;-4.349574e-17;3.763992;0;0;0
-13.438391;35.731538;4.230093;0;0;0;0;0;0;-1.087255e-17;0;0;0;0;1.087255e-17;-1.087255e-17;1.087255e-17;45;0;1.449674e-17;1.255454e-17;0;-2.174511e-17;0;0;2.174511e-17;4.196239;0;0;0
-11.825405;35.731538;4.585717;0;0;0;0;-1.110223e-16;-1.110223e-16;1.329059e-17;0;0;0;0;-9.773171e-17;-1.243129e-16;1.329059e-17;45;0;1.772079e-17;7.558915e-17;-1.110223e-16;2.445138e-17;2.1298e-18;-1.110223e-16;-2.232158e-17;4.569144;-2.220446e-16;2.220446e-16;0
-10.212419;35.731538;4.891666;0;0;0;0;2.220446e-16;0;2.036604e-17;0;0;0;0;2.238971e-16;-1.852527e-18;1.128748e-16;45;0;1.504998e-16;1.498861e-16;2.220446e-16;4.073207e-17;0;0;-4.073207e-17;4.902252;2.220446e-16;-2.220446e-16;0
-8.599433;35.731538;5.226581;0;0;0;0;-1.110223e-16;0;-1.085817e-17;0;0;0;0;1.05198e-18;-1.120743e-16;5.656313e-17;45;0;7.541751e-17;7.506931e-17;-1.110223e-16;-2.171635e-17;0;0;2.171635e-17;5.226005;-1.110223e-16;1.110223e-16;0
-6.986447;35.731538;5.558662;0;0;0;0;0;0;1.085671e-17;0;0;0;0;1.085671e-17;-1.085671e-17;1.085671e-17;45;0;1.447562e-17;1.253625e-17;0;2.171343e-17;0;0;-2.171343e-17;5.537687;0;0;0
-5.373461;35.731538;5.831063;0;0;0;0;2.220446e-16;0;1.01804e-17;0;0;0;0;2.225104e-16;-4.657787e-19;1.114881e-16;45;0;1.486508e-16;1.484958e-16;2.220446e-16;2.036081e-17;0;0;-2.036081e-17;5.806545;2.220446e-16;-2.220446e-16;0
-3.760475;35.731538;6.033894;0;0;0;0;2.220446e-16;2.220446e-16;-1.21915e-18;0;0;0;0;2.232638e-16;2.208255e-16;1.21915e-18;45;0;1.625533e-18;1.480364e-16;2.220446e-16;-1.358187e-18;-1.080113e-18;2.220446e-16;2.780747e-19;6.022578;4.440892e-16;-4.440892e-16;0
-2.147489;35.731538;6.199195;0;0;0;0;0;0;0;0;0;0;0;0;0;0;45;0;0;0;0;0;0;0;0;6.185935;0;0;0
-0.534503;35.731538;6.310419;0;0;0;0;0;2.220446e-16;1.060987e-17;0;0;0;0;2.225504e-16;-5.058147e-19;1.115281e-16;45;0;1.487042e-16;1.485358e-16;0;2.176275e-17;-5.430174e-19;2.220446e-16;-2.230577e-17;6.295611;2.220446e-16;-2.220446e-16;0
1.078483;35.731538;6.361499;0;0;0;0;2.220446e-16;0;2.165455e-17;0;0;0;0;2.241367e-16;-2.092113e-18;1.131144e-16;45;0;1.508192e-16;1.501267e-16;2.220446e-16;4.330909e-17;0;0;-4.330909e-17;6.353454;2.220446e-16;-2.220446e-16;0
2.691469;35.731538;6.382424;0;0;0;0;-1.110223e-16;0;5.298925e-21;0;0;0;0;2.529096e-25;-1.110223e-16;5.551115e-17;45;0;7.401487e-17;7.401487e-17;-1.110223e-16;1.059785e-20;0;0;-1.059785e-20;6.36836;-1.110223e-16;1.110223e-16;0
4.304455;35.731538;6.366918;0;0;0;0;0;-1.110223e-16;1.071226e-17;0;0;0;0;1.024152e-18;-1.120465e-16;5.65353e-17;45;0;7.538041e-17;7.504135e-17;0;2.169629e-17;-2.717625e-19;-1.110223e-16;-2.196805e-17;6.348377;-1.110223e-16;1.110223e-16;0
5.917441;35.731538;6.304623;0;0;0;0;0;2.220446e-16;-2.143263e-17;0;0;0;0;2.240945e-16;-2.04984e-18;1.130721e-16;45;0;1.507629e-16;1.500842e-16;0;-4.340822e-17;5.42957e-19;2.220446e-16;4.395118e-17;6.288103;2.220446e-16;-2.220446e-16;0
7.530427;35.731538;6.20088;0;0;0;0;2.220446e-16;-1.110223e-16;-2.029164e-19;0;0;0;0;2.220447e-16;-1.110224e-16;1.665336e-16;45;0;2.220448e-16;1.958251e-16;2.220446e-16;6.782418e-19;-1.084075e-18;-1.110223e-16;-1.762317e-18;6.184041;1.110223e-16;-1.110223e-16;0
9.143413;35.731538;6.05504;0;0;0;0;0;2.220446e-16;5.40785e-19;0;0;0;0;2.220459e-16;-1.317063e-21;1.110236e-16;45;0;1.480315e-16;1.480311e-16;0;1.048523e-22;1.081465e-18;2.220446e-16;1.08136e-18;6.036933;2.220446e-16;-2.220446e-16;0
10.756399;35.731538;5.864723;0;0;0;0;-1.110223e-16;0;-6.782876e-19;0;0;0;0;4.143825e-21;-1.110264e-16;5.551529e-17;45;0;7.40204e-17;7.401901e-17;-1.110223e-16;-1.356575e-18;0;0;1.356575e-18;5.849826;-1.110223e-16;1.110223e-16;0
12.369385;35.731538;5.639298;0;0;0;0;0;0;-1.017628e-17;0;0;0;0;1.017628e-17;-1.017628e-17;1.017628e-17;45;0;1.356837e-17;1.175055e-17;0;-2.035256e-17;0;0;2.035256e-17;5.621507;0;0;0
13.982371;35.731538;5.368461;0;0;0;0;2.220446e-16;-1.110223e-16;2.878278e-19;0;0;0;0;2.220448e-16;-1.110226e-16;1.665337e-16;45;0;2.220449e-16;1.958252e-16;2.220446e-16;2.714374e-18;-2.138718e-18;-1.110223e-16;-4.853091e-18;5.34912;1.110223e-16;-1.110223e-16;0
15.595357;35.731538;5.044946;0;0;0;0;0;0;-1.086209e-17;0;0;0;0;1.086209e-17;-1.086209e-17;1.086209e-17;45;0;1.448278e-17;1.254246e-17;0;-2.172418e-17;0;0;2.172418e-17;5.028495;0;0;0
17.208343;35.731538;4.675268;0;0;0;0;-1.110223e-16;2.220446e-16;7.553735e-19;0;0;0;0;2.220463e-16;-1.11024e-16;1.665352e-16;45;0;2.220469e-16;1.958269e-16;-1.110223e-16;-2.715593e-18;4.22634e-18;2.220446e-16;6.941934e-18;4.660075;1.110223e-16;-1.110223e-16;0
18.821329;35.731538;4.263019;0;0;0;0;0;-1.110223e-16;-1.191104e-17;0;0;0;0;1.263499e-18;-1.122858e-16;5.677465e-17;45;0;7.569953e-17;7.52819e-17;0;-2.172315e-17;-2.098938e-18;-1.110223e-16;1.962421e-17;4.245773;-1.110223e-16;1.110223e-16;0
20.434315;35.731538;3.804005;0;0;0;0;2.220446e-16;0;1.357449e-18;0;0;0;0;2.220529e-16;-8.298329e-21;1.110306e-16;45;0;1.480408e-16;1.48038e-16;2.220446e-16;2.714898e-18;0;0;-2.714898e-18;3.785412;2.220446e-16;-2.220446e-16;0
22.047301;35.731538;3.296008;0;0;0;0;0;0;3.123117e-17;0;0;0;0;3.123117e-17;-3.123117e-17;3.123117e-17;45;0;4.164156e-17;3.606265e-17;0;6.246233e-17;0;0;-6.246233e-17;3.277031;0;0;0
23.660287;35.731538;2.737322;0;0;0;0;-1.110223e-16;-1.110223e-16;-2.513411e-17;0;0;0;0;-8.588819e-17;-1.361564e-16;2.513411e-17;45;0;3.351215e-17;7.950157e-17;-1.110223e-16;-4.618012e-17;-4.088102e-18;-1.110223e-16;4.209202e-17;2.718238;-2.220446e-16;2.220446e-16;0
25.273273;35.731538;2.125512;0;0;0;0;-1.110223e-16;-1.110223e-16;-2.647524e-17;0;0;0;0;-8.454707e-17;-1.374975e-16;2.647524e-17;45;0;3.530031e-17;8.007986e-17;-1.110223e-16;-4.890736e-17;-4.043112e-18;-1.110223e-16;4.486425e-17;2.106851;-2.220446e-16;2.220446e-16;0
26.886259;35.731538;1.461034;0;0;0;0;2.220446e-16;0;2.717217e-18;0;0;0;0;2.220779e-16;-3.324629e-20;1.110555e-16;45;0;1.480741e-16;1.48063e-16;2.220446e-16;5.434433e-18;0;0;-5.434433e-18;1.441253;2.220446e-16;-2.220446e-16;0
28.499246;35.731538;0.742275;0;0;0;0;0;-1.110223e-16;-2.371211e-17;0;0;0;0;4.852347e-18;-1.158746e-16;6.03635e-17;45;0;8.048467e-17;7.891695e-17;0;-4.348103e-17;-3.943186e-18;-1.110223e-16;3.953784e-17;0.719785;-1.110223e-16;1.110223e-16;0
30.112232;35.731538;-0.036467;0;0;0;0;0;0;0;0;0;0;0;0;0;0;45;0;0;0;0;0;0;0;0;-0.052209;0;0;0
31.725218;35.731538;-0.853614;0;0;0;0;2.220446e-16;0;1.876924e-17;0;0;0;0;2.2362e-16;-1.575371e-18;1.125977e-16;45;0;1.501302e-16;1.496079e-16;2.220446e-16;3.753849e-17;0;0;-3.753849e-17;-0.856587;2.220446e-16;-2.220446e-16;0
-42.47214;34.118552;-13.113106;0;0;0;0;0;0;0;0;0;0;0;0;0;0;45;0;0;0;0;0;0;0;0;-13.138339;0;0;0
-40.859154;34.118552;-11.462364;0;0;0;0;0;0;3.050241e-22;0;0;0;0;3.050241e-22;-3.050241e-22;3.050241e-22;45;0;4.066987e-22;3.522115e-22;0;6.100481e-22;0;0;-6.100481e-22;-11.492063;0;0;0
-39.246168;34.118552;-9.910471;0;0;0;0;0;0;0;0;0;0;0;0;0;0;45;0;0;0;0;0;0;0;0;-9.939788;0;0;0
-37.633182;34.118552;-8.45558;0;0;0;0;0;0;0;0;0;0;0;0;0;0;45;0;0;0;0;0;0;0;0;-8.492486;0;0;0
-36.020196;34.118552;-7.119378;0;0;0;0;0;0;1.088872e-17;0;0;0;0;1.088872e-17;-1.088872e-17;1.088872e-17;45;0;1.451829e-17;1.257321e-17;0;2.177744e-17;0;0;-2.177744e-17;-7.151726;0;0;0
-34.40721;34.118552;-5.887175;0;0;0;0;-1.110223e-16;2.220446e-16;-1.165473e-17;0;0;0;0;2.224519e-16;-1.114296e-16;1.669408e-16;45;0;2.225877e-16;1.962868e-16;-1.110223e-16;-1.632982e-17;-6.979651e-18;2.220446e-16;9.350166e-18;-5.907805;1.110223e-16;-1.110223e-16;0
-32.794224;34.118552;-4.721996;0;0;0;0;2.220446e-16;2.220446e-16;-1.717616e-17;0;0;0;0;2.392208e-16;2.048684e-16;1.717616e-17;45;0;2.290155e-17;1.493525e-16;2.220446e-16;-2.720895e-17;-7.143374e-18;2.220446e-16;2.006558e-17;-4.751718;4.440892e-16;-4.440892e-16;0
-31.181238;34.118552;-3.649391;0;0;0;0;0;0;1.088112e-17;0;0;0;0;1.088112e-17;-1.088112e-17;1.088112e-17;45;0;1.450815e-17;1.256443e-17;0;2.176223e-17;0;0;-2.176223e-17;-3.672186;0;0;0
-29.568251;34.118552;-2.649108;0;0;0;0;0;0;2.175747e-17;0;0;0;0;2.175747e-17;-2.175747e-17;2.175747e-17;45;0;2.900996e-17;2.512336e-17;0;4.351494e-17;0;0;-4.351494e-17;-2.670596;0;0;0
-27.955265;34.118552;-1.716659;0;0;0;0;2.220446e-16;-1.110223e-16;1.005779e-17;0;0;0;0;2.223481e-16;-1.113258e-16;1.668369e-16;45;0;2.224492e-16;1.96169e-16;2.220446e-16;1.63178e-17;3.797786e-18;-1.110223e-16;-1.252001e-17;-1.738218;1.110223e-16;-1.110223e-16;0
-26.342279;34.118552;-0.849492;0;0;0;0;0;0;0;0;0;0;0;0;0;0;45;0;0;0;0;0;0;0;0;-0.869527;0;0;0
-24.729293;34.118552;-0.040573;0;0;0;0;0;-1.110223e-16;1.958443e-18;0;0;0;0;3.453634e-20;-1.110568e-16;5.554569e-17;45;0;7.406091e-17;7.404941e-17;0;0;3.916885e-18;-1.110223e-16;3.916885e-18;-0.062574;-1.110223e-16;1.110223e-16;0
-23.116307;34.118552;0.70263;0;0;0;0;0;-1.110223e-16;1.983401e-18;0;0;0;0;3.542195e-20;-1.110577e-16;5.554657e-17;45;0;7.40621e-17;7.405029e-17;0;0;3.966803e-18;-1.110223e-16;3.966803e-18;0.690213;-1.110223e-16;1.110223e-16;0
-21.503321;34.118552;1.40586;0;0;0;0;-1.110223e-16;0;2.446381e-17;0;0;0;0;5.151572e-18;-1.161739e-16;6.066273e-17;45;0;8.088363e-17;7.922229e-17;-1.110223e-16;4.892762e-17;0;0;-4.892762e-17;1.395845;-1.110223e-16;1.110223e-16;0
-19.890335;34.118552;2.075141;0;0;0;0;2.220446e-16;0;9.514456e-18;0;0;0;0;2.224516e-16;-4.06942e-19;1.114292e-16;45;0;1.485723e-16;1.484369e-16;2.220446e-16;1.902891e-17;0;0;-1.902891e-17;2.05185;2.220446e-16;-2.220446e-16;0
-18.277349;34.118552;2.672826;0;0;0;0;-1.110223e-16;0;1.35884e-18;0;0;0;0;1.662882e-20;-1.110389e-16;5.552778e-17;45;0;7.403704e-17;7.40315e-17;-1.110223e-16;2.717681e-18;0;0;-2.717681e-18;2.646673;-1.110223e-16;1.110223e-16;0
-16.664363;34.118552;3.192688;0;0;0;0;0;2.220446e-16;-2.0756e-18;0;0;0;0;2.22064e-16;-1.940033e-20;1.110417e-16;45;0;1.480556e-16;1.480491e-16;0;9.594169e-23;-4.151296e-18;2.220446e-16;-4.151392e-18;3.181019;2.220446e-16;-2.220446e-16;0
-15.051377;34.118552;3.682162;0;0;0;0;0;2.220446e-16;-1.295822e-17;0;0;0;0;2.227983e-16;-7.53666e-19;1.11776e-16;45;0;1.490346e-16;1.48784e-16;0;-2.174081e-17;-4.175632e-18;2.220446e-16;1.756518e-17;3.666487;2.220446e-16;-2.220446e-16;0
-13.438391;34.118552;4.134312;0;0;0;0;0;2.220446e-16;-1.297599e-17;0;0;0;0;2.228003e-16;-7.557279e-19;1.11778e-16;45;0;1.490374e-16;1.487861e-16;0;-2.173246e-17;-4.219533e-18;2.220446e-16;1.751292e-17;4.09693;2.220446e-16;-2.220446e-16;0
-11.825405;34.118552;4.486607;0;0;0;0;-1.110223e-16;2.220446e-16;2.92611e-19;0;0;0;0;2.220449e-16;-1.110226e-16;1.665337e-16;45;0;2.220449e-16;1.958252e-16;-1.110223e-16;2.715927e-18;-2.130705e-18;2.220446e-16;-4.846632e-18;4.466929;1.110223e-16;-1.110223e-16;0
-10.212419;34.118552;4.788591;0;0;0;0;0;-1.110223e-16;1.066905e-18;0;0;0;0;1.025183e-20;-1.110326e-16;5.55214e-17;45;0;7.402854e-17;7.402512e-17;0;0;2.133811e-18;-1.110223e-16;2.133811e-18;4.796722;-1.110223e-16;1.110223e-16;0
-8.599433;34.118552;5.115877;0;0;0;0;2.220446e-16;2.220446e-16;-1.328482e-17;0;0;0;0;2.353294e-16;2.087598e-16;1.328482e-17;45;0;1.77131e-17;1.488224e-16;2.220446e-16;-2.443897e-17;-2.130672e-18;2.220446e-16;2.23083e-17;5.11832;4.440892e-16;-4.440892e-16;0
-6.986447;34.118552;5.443085;0;0;0;0;2.220446e-16;-1.110223e-16;1.068799e-18;0;0;0;0;2.22048e-16;-1.110257e-16;1.665369e-16;45;0;2.220492e-16;1.958288e-16;2.220446e-16;1.373573e-22;2.13746e-18;-1.110223e-16;2.137322e-18;5.429456;1.110223e-16;-1.110223e-16;0
-5.373461;34.118552;5.720011;0;0;0;0;0;0;-6.786622e-19;0;0;0;0;6.786622e-19;-6.786622e-19;6.786622e-19;45;0;9.04883e-19;7.836516e-19;0;-1.357324e-18;0;0;1.357324e-18;5.699479;0;0;0
-3.760475;34.118552;5.932398;0;0;0;0;2.220446e-16;0;-6.789497e-19;0;0;0;0;2.220467e-16;-2.076017e-21;1.110244e-16;45;0;1.480325e-16;1.480318e-16;2.220446e-16;-1.357899e-18;0;0;1.357899e-18;5.92385;2.220446e-16;-2.220446e-16;0
-2.147489;34.118552;6.126359;0;0;0;0;0;-1.110223e-16;-1.033719e-17;0;0;0;0;9.542842e-19;-1.119766e-16;5.646543e-17;45;0;7.528725e-17;7.497118e-17;0;-2.175623e-17;1.08185e-18;-1.110223e-16;2.283808e-17;6.101428;-1.110223e-16;1.110223e-16;0
-0.534503;34.118552;6.256706;0;0;0;0;0;0;-7.953652e-23;0;0;0;0;7.953652e-23;-7.953652e-23;7.953652e-23;45;0;1.060487e-22;9.184086e-23;0;-1.59073e-22;0;0;1.59073e-22;6.216259;0;0;0
1.078483;34.118552;6.271161;0;0;0;0;2.220446e-16;0;-1.061836e-20;0;0;0;0;2.220446e-16;-5.077785e-25;1.110223e-16;45;0;1.480297e-16;1.480297e-16;2.220446e-16;-2.123671e-20;0;0;2.123671e-20;6.263676;2.220446e-16;-2.220446e-16;0
2.691469;34.118552;6.258745;0;0;0;0;0;0;-1.085482e-17;0;0;0;0;1.085482e-17;-1.085482e-17;1.085482e-17;45;0;1.44731e-17;1.253407e-17;0;-2.170965e-17;0;0;2.170965e-17;6.261608;0;0;0
4.304455;34.118552;6.243129;0;0;0;0;0;2.220446e-16;1.098662e-17;0;0;0;0;2.225869e-16;-5.422859e-19;1.115646e-16;45;0;1.487528e-16;1.485724e-16;0;2.170145e-17;2.717775e-19;2.220446e-16;-2.142968e-17;6.235407;2.220446e-16;-2.220446e-16;0
5.917441;34.118552;6.190448;0;0;0;0;0;-1.110223e-16;-2.715067e-19;0;0;0;0;6.639696e-22;-1.11023e-16;5.551181e-17;45;0;7.401575e-17;7.401553e-17;0;0;-5.430134e-19;-1.110223e-16;-5.430134e-19;6.177199;-1.110223e-16;1.110223e-16;0
7.530427;34.118552;6.08433;0;0;0;0;-1.110223e-16;-1.110223e-16;-8.812225e-19;0;0;0;0;-1.101411e-16;-1.119035e-16;8.812225e-19;45;0;1.174963e-18;7.402187e-17;-1.110223e-16;-6.784405e-19;-1.084005e-18;-1.110223e-16;-4.055641e-19;6.074862;-2.220446e-16;2.220446e-16;0
9.143413;34.118552;5.936758;0;0;0;0;0;0;0;0;0;0;0;0;0;0;45;0;0;0;0;0;0;0;0;5.92677;0;0;0
10.756399;34.118552;5.74615;0;0;0;0;0;-1.110223e-16;-5.391944e-19;0;0;0;0;2.618607e-21;-1.110249e-16;5.551377e-17;45;0;7.401836e-17;7.401748e-17;0;0;-1.078389e-18;-1.110223e-16;-1.078389e-18;5.738869;-1.110223e-16;1.110223e-16;0
12.369385;34.118552;5.521708;0;0;0;0;-1.110223e-16;0;9.498447e-18;0;0;0;0;8.067714e-19;-1.118291e-16;5.631792e-17;45;0;7.509056e-17;7.482309e-17;-1.110223e-16;1.899689e-17;0;0;-1.899689e-17;5.511054;-1.110223e-16;1.110223e-16;0
13.982371;34.118552;5.255916;0;0;0;0;2.220446e-16;0;6.785672e-19;0;0;0;0;2.220467e-16;-2.073679e-21;1.110244e-16;45;0;1.480325e-16;1.480318e-16;2.220446e-16;1.357134e-18;0;0;-1.357134e-18;5.240617;2.220446e-16;-2.220446e-16;0
15.595357;34.118552;4.938663;0;0;0;0;0;0;0;0;0;0;0;0;0;0;45;0;0;0;0;0;0;0;0;4.921527;0;0;0
17.208343;34.118552;4.568719;0;0;0;0;2.220446e-16;0;1.357465e-18;0;0;0;0;2.220529e-16;-8.29852e-21;1.110306e-16;45;0;1.480408e-16;1.48038e-16;2.220446e-16;2.714929e-18;0;0;-2.714929e-18;4.551963;2.220446e-16;-2.220446e-16;0
18.821329;34.118552;4.150491;0;0;0;0;0;0;-2.171653e-17;0;0;0;0;2.171653e-17;-2.171653e-17;2.171653e-17;45;0;2.895537e-17;2.507608e-17;0;-4.343305e-17;0;0;4.343305e-17;4.134201;0;0;0
20.434315;34.118552;3.686844;0;0;0;0;-1.110223e-16;0;-3.528492e-17;0;0;0;0;1.026509e-17;-1.212874e-16;6.577624e-17;45;0;8.770165e-17;8.448808e-17;-1.110223e-16;-7.056985e-17;0;0;7.056985e-17;3.67163;-1.110223e-16;1.110223e-16;0
22.047301;34.118552;3.18062;0;0;0;0;0;0;-1.085987e-17;0;0;0;0;1.085987e-17;-1.085987e-17;1.085987e-17;45;0;1.447982e-17;1.253989e-17;0;-2.171973e-17;0;0;2.171973e-17;3.164178;0;0;0
23.660287;34.118552;2.62623;0;0;0;0;0;0;2.173018e-17;0;0;0;0;2.173018e-17;-2.173018e-17;2.173018e-17;45;0;2.897357e-17;2.509185e-17;0;4.346035e-17;0;0;-4.346035e-17;2.608294;0;0;0
25.273273;34.118552;2.016539;0;0;0;0;0;0;0;0;0;0;0;0;0;0;45;0;0;0;0;0;0;0;0;1.998463;0;0;0
26.886259;34.118552;1.349397;0;0;0;0;-1.110223e-16;2.220446e-16;1.996581e-18;0;0;0;0;2.220566e-16;-1.110343e-16;1.665454e-16;45;0;2.220606e-16;1.958385e-16;-1.110223e-16;2.868933e-22;3.992876e-18;2.220446e-16;3.992589e-18;1.331962;1.110223e-16;-1.110223e-16;0
28.499246;34.118552;0.62626;0;0;0;0;0;0;-1.417059e-22;0;0;0;0;1.417059e-22;-1.417059e-22;1.417059e-22;45;0;1.889412e-22;1.636279e-22;0;-2.834118e-22;0;0;2.834118e-22;0.608504;0;0;0
30.112232;34.118552;-0.153064;0;0;0;0;2.220446e-16;0;-1.902104e-17;0;0;0;0;2.236622e-16;-1.617618e-18;1.126399e-16;45;0;1.501866e-16;1.496503e-16;2.220446e-16;-3.804208e-17;0;0;3.804208e-17;-0.165703;2.220446e-16;-2.220446e-16;0
31.725218;34.118552;-0.972912;0;0;0;0;-2.220446e-16;2.220446e-16;7.208018e-19;0;0;0;0;2.220458e-16;-2.220458e-16;2.220458e-16;45;0;2.96061e-16;2.563964e-16;-2.220446e-16;-9.516562e-18;1.095817e-17;2.220446e-16;2.047473e-17;-0.972065;0;0;0
-44.085126;32.505566;-14.979472;0;0;0;0;0;0;2.724083e-18;0;0;0;0;2.724083e-18;-2.724083e-18;2.724083e-18;45;0;3.632111e-18;3.1455e-18;0;5.448167e-18;0;0;-5.448167e-18;-14.98661;0;0;0
-42.47214;32.505566;-13.208346;0;0;0;0;0;2.220446e-16;-1.260907e-17;0;0;0;0;2.227583e-16;-7.137274e-19;1.11736e-16;45;0;1.489814e-16;1.48744e-16;0;0;-2.521815e-17;2.220446e-16;-2.521815e-17;-13.243221;2.220446e-16;-2.220446e-16;0
-40.859154;32.505566;-11.540517;0;0;0;0;-2.220446e-16;0;-5.449104e-18;0;0;0;0;1.336437e-19;-2.221783e-16;1.111559e-16;45;0;1.482079e-16;1.481634e-16;-2.220446e-16;-1.089821e-17;0;0;1.089821e-17;-11.587819;-2.220446e-16;2.220446e-16;0
-39.246168;32.505566;-10.00473;0;0;0;0;-2.220446e-16;2.220446e-16;-4.649478e-19;0;0;0;0;2.220451e-16;-2.220451e-16;2.220451e-16;45;0;2.960601e-16;2.563956e-16;-2.220446e-16;5.445926e-18;-6.375821e-18;2.220446e-16;-1.182175e-17;-10.037481;0;0;0
-37.633182;32.505566;-8.551292;0;0;0;0;-2.220446e-16;0;1.633533e-17;0;0;0;0;1.195319e-18;-2.232399e-16;1.122176e-16;45;0;1.496235e-16;1.492267e-16;-2.220446e-16;3.267066e-17;0;0;-3.267066e-17;-8.594914;-2.220446e-16;2.220446e-16;0
-36.020196;32.505566;-7.217465;0;0;0;0;-2.220446e-16;0;1.361083e-17;0;0;0;0;8.31202e-19;-2.228758e-16;1.118535e-16;45;0;1.49138e-16;1.488617e-16;-2.220446e-16;2.722167e-17;0;0;-2.722167e-17;-7.254787;-2.220446e-16;2.220446e-16;0
-34.40721;32.505566;-5.990651;0;0;0;0;0;2.220446e-16;-2.526544e-17;0;0;0;0;2.248831e-16;-2.838552e-18;1.138609e-16;45;0;1.518145e-16;1.508772e-16;0;-4.354941e-17;-6.981471e-18;2.220446e-16;3.656794e-17;-6.010731;2.220446e-16;-2.220446e-16;0
-32.794224;32.505566;-4.825091;0;0;0;0;0;2.220446e-16;-3.572452e-18;0;0;0;0;2.221021e-16;-5.746194e-20;1.110798e-16;45;0;1.481064e-16;1.480872e-16;0;0;-7.144904e-18;2.220446e-16;-7.144904e-18;-4.85528;2.220446e-16;-2.220446e-16;0
-31.181238;32.505566;-3.754751;0;0;0;0;-1.110223e-16;0;2.720575e-18;0;0;0;0;6.662706e-20;-1.110889e-16;5.557778e-17;45;0;7.41037e-17;7.408151e-17;-1.110223e-16;5.44115e-18;0;0;-5.44115e-18;-3.776854;-1.110223e-16;1.110223e-16;0
-29.568251;32.505566;-2.756707;0;0;0;0;0;0;-2.176184e-17;0;0;0;0;2.176184e-17;-2.176184e-17;2.176184e-17;45;0;2.901578e-17;2.512841e-17;0;-4.352367e-17;0;0;4.352367e-17;-2.775819;0;0;0
-27.955265;32.505566;-1.820718;0;0;0;0;0;2.220446e-16;-1.898082e-18;0;0;0;0;2.220608e-16;-1.622399e-20;1.110385e-16;45;0;1.480514e-16;1.48046e-16;0;0;-3.796163e-18;2.220446e-16;-3.796163e-18;-1.843089;2.220446e-16;-2.220446e-16;0
-26.342279;32.505566;-0.954058;0;0;0;0;2.220446e-16;-1.110223e-16;1.008712e-17;0;0;0;0;2.223498e-16;-1.113275e-16;1.668387e-16;45;0;2.224516e-16;1.96171e-16;2.220446e-16;1.631597e-17;3.85826e-18;-1.110223e-16;-1.245771e-17;-0.973071;1.110223e-16;-1.110223e-16;0
-24.729293;32.505566;-0.145051;0;0;0;0;0;0;1.087619e-17;0;0;0;0;1.087619e-17;-1.087619e-17;1.087619e-17;45;0;1.450158e-17;1.255874e-17;0;2.175238e-17;0;0;-2.175238e-17;-0.165058;0;0;0
-23.116307;32.505566;0.603086;0;0;0;0;0;0;-1.087591e-17;0;0;0;0;1.087591e-17;-1.087591e-17;1.087591e-17;45;0;1.450122e-17;1.255842e-17;0;-2.175182e-17;0;0;2.175182e-17;0.587442;0;0;0
-21.503321;32.505566;1.30261;0;0;0;0;-1.110223e-16;0;2.71844e-18;0;0;0;0;6.65226e-20;-1.110888e-16;5.557768e-17;45;0;7.410356e-17;7.40814e-17;-1.110223e-16;5.43688e-18;0;0;-5.43688e-18;1.293036;-1.110223e-16;1.110223e-16;0
-19.890335;32.505566;1.974129;0;0;0;0;0;2.220446e-16;-3.381637e-18;0;0;0;0;2.220961e-16;-5.148885e-20;1.110738e-16;45;0;1.480984e-16;1.480812e-16;0;-2.718011e-18;-4.045263e-18;2.220446e-16;-1.327252e-18;1.949593;2.220446e-16;-2.220446e-16;0
-18.277349;32.505566;2.577461;0;0;0;0;-1.110223e-16;2.220446e-16;-1.156541e-17;0;0;0;0;2.224457e-16;-1.114234e-16;1.669346e-16;45;0;2.225794e-16;1.962798e-16;-1.110223e-16;-1.902299e-17;-4.107826e-18;2.220446e-16;1.491517e-17;2.545753;1.110223e-16;-1.110223e-16;0
-16.664363;32.505566;3.096413;0;0;0;0;0;-1.110223e-16;1.038414e-18;0;0;0;0;9.71165e-21;-1.11032e-16;5.552087e-17;45;0;7.402781e-17;7.402458e-17;0;0;2.076828e-18;-1.110223e-16;2.076828e-18;3.079407;-1.110223e-16;1.110223e-16;0
-15.051377;32.505566;3.577769;0;0;0;0;-1.110223e-16;-1.110223e-16;2.402347e-18;0;0;0;0;-1.0862e-16;-1.134246e-16;2.402347e-18;45;0;3.203129e-18;7.406683e-17;-1.110223e-16;2.715216e-18;2.089477e-18;-1.110223e-16;-6.257388e-19;3.562022;-2.220446e-16;2.220446e-16;0
-13.438391;32.505566;4.023088;0;0;0;0;2.220446e-16;0;2.03604e-17;0;0;0;0;2.238961e-16;-1.851511e-18;1.128738e-16;45;0;1.504984e-16;1.498851e-16;2.220446e-16;4.072081e-17;0;0;-4.072081e-17;3.990793;2.220446e-16;-2.220446e-16;0
-11.825405;32.505566;4.377273;0;0;0;0;2.220446e-16;-1.110223e-16;-9.794886e-18;0;0;0;0;2.223324e-16;-1.113101e-16;1.668213e-16;45;0;2.224283e-16;1.961513e-16;2.220446e-16;-2.171973e-17;2.129953e-18;-1.110223e-16;2.384968e-17;4.361431;1.110223e-16;-1.110223e-16;0
-10.212419;32.505566;4.685016;0;0;0;0;0;-1.110223e-16;-9.79654e-18;0;0;0;0;8.578128e-19;-1.118801e-16;5.636896e-17;45;0;7.515862e-17;7.487432e-17;0;-2.172657e-17;2.133494e-18;-1.110223e-16;2.386007e-17;4.692274;-1.110223e-16;1.110223e-16;0
-8.599433;32.505566;5.013166;0;0;0;0;-1.110223e-16;0;-2.944636e-25;0;0;0;0;0;-1.110223e-16;5.551115e-17;45;0;7.401487e-17;7.401487e-17;-1.110223e-16;-5.889272e-25;0;0;5.889272e-25;5.014159;-1.110223e-16;1.110223e-16;0
-6.986447;32.505566;5.342237;0;0;0;0;0;0;0;0;0;0;0;0;0;0;45;0;0;0;0;0;0;0;0;5.323969;0;0;0
-5.373461;32.505566;5.614417;0;0;0;0;0;-1.110223e-16;5.378629e-19;0;0;0;0;2.60569e-21;-1.110249e-16;5.551376e-17;45;0;7.401834e-17;7.401747e-17;0;0;1.075726e-18;-1.110223e-16;1.075726e-18;5.591634;-1.110223e-16;1.110223e-16;0
-3.760475;32.505566;5.81954;0;0;0;0;2.220446e-16;2.220446e-16;9.09766e-18;0;0;0;0;2.311423e-16;2.129469e-16;9.09766e-18;45;0;1.213021e-17;1.48402e-16;2.220446e-16;2.035219e-17;-2.156867e-18;2.220446e-16;-2.250905e-17;5.818984;4.440892e-16;-4.440892e-16;0
-2.147489;32.505566;6.037766;0;0;0;0;0;2.220446e-16;-1.140068e-17;0;0;0;0;2.226284e-16;-5.83823e-19;1.116061e-16;45;0;1.488082e-16;1.486139e-16;0;-2.1721e-17;-1.080371e-18;2.220446e-16;2.064062e-17;6.006902;2.220446e-16;-2.220446e-16;0
-0.534503;32.505566;6.196574;0;0;0;0;2.220446e-16;0;-3.389167e-19;0;0;0;0;2.220451e-16;-5.173028e-22;1.110228e-16;45;0;1.480304e-16;1.480303e-16;2.220446e-16;-6.778335e-19;0;0;6.778335e-19;6.127348;2.220446e-16;-2.220446e-16;0
1.078483;32.505566;6.186657;0;0;0;0;0;2.220446e-16;6.79555e-20;0;0;0;0;2.220446e-16;-2.07974e-23;1.110223e-16;45;0;1.480298e-16;1.480298e-16;0;0;1.35911e-19;2.220446e-16;1.35911e-19;6.167772;2.220446e-16;-2.220446e-16;0
2.691469;32.505566;6.148898;0;0;0;0;0;0;-1.085585e-17;0;0;0;0;1.085585e-17;-1.085585e-17;1.085585e-17;45;0;1.447447e-17;1.253526e-17;0;-2.17117e-17;0;0;2.17117e-17;6.152856;0;0;0
4.304455;32.505566;6.135035;0;0;0;0;0;-1.110223e-16;-1.358964e-19;0;0;0;0;1.663432e-22;-1.110225e-16;5.551132e-17;45;0;7.401509e-17;7.401504e-17;0;0;-2.717928e-19;-1.110223e-16;-2.717928e-19;6.122715;-1.110223e-16;1.110223e-16;0
5.917441;32.505566;6.088445;0;0;0;0;0;0;-1.08603e-17;0;0;0;0;1.08603e-17;-1.08603e-17;1.08603e-17;45;0;1.44804e-17;1.25404e-17;0;-2.17206e-17;0;0;2.17206e-17;6.068295;0;0;0
7.530427;32.505566;5.980978;0;0;0;0;-1.110223e-16;0;-3.394852e-19;0;0;0;0;1.038071e-21;-1.110233e-16;5.551219e-17;45;0;7.401625e-17;7.401591e-17;-1.110223e-16;-6.789703e-19;0;0;6.789703e-19;5.9693;-1.110223e-16;1.110223e-16;0
9.143413;32.505566;5.832256;0;0;0;0;-1.110223e-16;-1.110223e-16;-1.219737e-18;0;0;0;0;-1.098026e-16;-1.12242e-16;1.219737e-18;45;0;1.626316e-18;7.402827e-17;-1.110223e-16;-1.358127e-18;-1.081347e-18;-1.110223e-16;2.767799e-19;5.821468;-2.220446e-16;2.220446e-16;0
10.756399;32.505566;5.639815;0;0;0;0;0;0;-2.172966e-17;0;0;0;0;2.172966e-17;-2.172966e-17;2.172966e-17;45;0;2.897288e-17;2.509125e-17;0;-4.345933e-17;0;0;4.345933e-17;5.632753;0;0;0
12.369385;32.505566;5.414078;0;0;0;0;0;0;0;0;0;0;0;0;0;0;45;0;0;0;0;0;0;0;0;5.404248;0;0;0
13.982371;32.505566;5.149338;0;0;0;0;-1.110223e-16;0;-6.788575e-19;0;0;0;0;4.150789e-21;-1.110265e-16;5.55153e-17;45;0;7.40204e-17;7.401902e-17;-1.110223e-16;-1.357715e-18;0;0;1.357715e-18;5.133972;-1.110223e-16;1.110223e-16;0
15.595357;32.505566;4.833144;0;0;0;0;2.220446e-16;0;-1.873237e-22;0;0;0;0;2.220446e-16;-1.580187e-28;1.110223e-16;45;0;1.480297e-16;1.480297e-16;2.220446e-16;-3.746475e-22;0;0;3.746475e-22;4.81487;2.220446e-16;-2.220446e-16;0
17.208343;32.505566;4.459287;0;0;0;0;0;0;0;0;0;0;0;0;0;0;45;0;0;0;0;0;0;0;0;4.443386;0;0;0
18.821329;32.505566;4.034132;0;0;0;0;0;0;-2.171964e-17;0;0;0;0;2.171964e-17;-2.171964e-17;2.171964e-17;45;0;2.895953e-17;2.507968e-17;0;-4.343929e-17;0;0;4.343929e-17;4.022078;0;0;0
20.434315;32.505566;3.566044;0;0;0;0;0;0;9.501581e-18;0;0;0;0;9.501581e-18;-9.501581e-18;9.501581e-18;45;0;1.266877e-17;1.097148e-17;0;1.900316e-17;0;0;-1.900316e-17;3.556991;0;0;0
22.047301;32.505566;3.063511;0;0;0;0;2.220446e-16;2.220446e-16;-3.051452e-17;0;0;0;0;2.525591e-16;1.915301e-16;3.051452e-17;45;0;4.068603e-17;1.521654e-16;2.220446e-16;-6.5163e-17;4.133949e-18;2.220446e-16;6.929695e-17;3.049799;4.440892e-16;-4.440892e-16;0
23.660287;32.505566;2.51702;0;0;0;0;0;0;1.357977e-18;0;0;0;0;1.357977e-18;-1.357977e-18;1.357977e-18;45;0;1.810636e-18;1.568057e-18;0;2.715954e-18;0;0;-2.715954e-18;2.495998;0;0;0
25.273273;32.505566;1.911881;0;0;0;0;0;2.220446e-16;2.375429e-17;0;0;0;0;2.245574e-16;-2.512794e-18;1.135351e-16;45;0;1.513801e-16;1.505495e-16;0;4.346569e-17;4.042893e-18;2.220446e-16;-3.94228e-17;1.886937;2.220446e-16;-2.220446e-16;0
26.886259;32.505566;1.241236;0;0;0;0;2.220446e-16;-1.110223e-16;-1.014553e-17;0;0;0;0;2.223533e-16;-1.113311e-16;1.668422e-16;45;0;2.224563e-16;1.96175e-16;2.220446e-16;-1.63014e-17;-3.989665e-18;-1.110223e-16;1.231173e-17;1.218916;1.110223e-16;-1.110223e-16;0
28.499246;32.505566;0.513523;0;0;0;0;0;2.220446e-16;-1.976556e-17;0;0;0;0;2.237903e-16;-1.74573e-18;1.12768e-16;45;0;1.503574e-16;1.497789e-16;0;-4.347005e-17;3.938922e-18;2.220446e-16;4.740897e-17;0.49327;2.220446e-16;-2.220446e-16;0
30.112232;32.505566;-0.267659;0;0;0;0;-1.110223e-16;0;1.901979e-17;0;0;0;0;3.16798e-18;-1.141903e-16;5.867913e-17;45;0;7.823885e-17;7.720452e-17;-1.110223e-16;3.803959e-17;0;0;-3.803959e-17;-0.283089;-1.110223e-16;1.110223e-16;0
31.725218;32.505566;-1.089669;0;0;0;0;0;0;-1.404142e-17;0;0;0;0;1.404142e-17;-1.404142e-17;1.404142e-17;45;0;1.872189e-17;1.621364e-17;0;-2.808284e-17;0;0;2.808284e-17;-1.091421;0;0;0
-44.085126;30.89258;-15.089948;0;0;0;0;0;0;-2.81564e-17;0;0;0;0;2.81564e-17;-2.81564e-17;2.81564e-17;45;0;3.754187e-17;3.251221e-17;0;-5.63128e-17;0;0;5.63128e-17;-15.088427;0;0;0
-42.47214;30.89258;-13.29837;0;0;0;0;-2.220446e-16;-1.110223e-16;1.78264e-17;0;0;0;0;-1.082302e-16;-2.248367e-16;5.830324e-17;45;0;7.773766e-17;1.298395e-16;-2.220446e-16;3.268391e-17;2.96888e-18;-1.110223e-16;-2.971503e-17;-13.345693;-3.330669e-16;3.330669e-16;0
-40.859154;30.89258;-11.637227;0;0;0;0;-2.220446e-16;-1.110223e-16;4.267469e-18;0;0;0;0;-1.108585e-16;-2.222084e-16;5.567494e-17;45;0;7.423326e-17;1.282922e-16;-2.220446e-16;5.444484e-18;3.090454e-18;-1.110223e-16;-2.35403e-18;-11.687801;-3.330669e-16;3.330669e-16;0
-39.246168;30.89258;-10.115234;0;0;0;0;0;-1.110223e-16;1.248759e-17;0;0;0;0;1.387249e-18;-1.124096e-16;5.68984e-17;45;0;7.586453e-17;7.540637e-17;0;2.178196e-17;3.193231e-18;-1.110223e-16;-1.858873e-17;-10.138866;-1.110223e-16;1.110223e-16;0
-37.633182;30.89258;-8.659908;0;0;0;0;2.220446e-16;0;-2.722215e-17;0;0;0;0;2.253333e-16;-3.288665e-18;1.14311e-16;45;0;1.524146e-16;1.513303e-16;2.220446e-16;-5.44443e-17;0;0;5.44443e-17;-8.698998;2.220446e-16;-2.220446e-16;0
-36.020196;30.89258;-7.320167;0;0;0;0;0;0;-1.088802e-17;0;0;0;0;1.088802e-17;-1.088802e-17;1.088802e-17;45;0;1.451736e-17;1.25724e-17;0;-2.177603e-17;0;0;2.177603e-17;-7.357745;0;0;0
-34.40721;30.89258;-6.091468;0;0;0;0;2.220446e-16;0;-2.721665e-18;0;0;0;0;2.22078e-16;-3.335522e-20;1.110557e-16;45;0;1.480742e-16;1.480631e-16;2.220446e-16;-5.443329e-18;0;0;5.443329e-18;-6.11253;2.220446e-16;-2.220446e-16;0
-32.794224;30.89258;-4.923192;0;0;0;0;0;0;-1.088562e-17;0;0;0;0;1.088562e-17;-1.088562e-17;1.088562e-17;45;0;1.451416e-17;1.256963e-17;0;-2.177124e-17;0;0;2.177124e-17;-4.957601;0;0;0
-31.181238;30.89258;-3.853804;0;0;0;0;-1.110223e-16;0;2.720408e-18;0;0;0;0;6.66189e-20;-1.110889e-16;5.557777e-17;45;0;7.41037e-17;7.408149e-17;-1.110223e-16;5.440817e-18;0;0;-5.440817e-18;-3.880715;-1.110223e-16;1.110223e-16;0
-29.568251;30.89258;-2.857647;0;0;0;0;-1.110223e-16;0;-2.176069e-17;0;0;0;0;4.1128e-18;-1.151351e-16;5.962395e-17;45;0;7.94986e-17;7.816374e-17;-1.110223e-16;-4.352138e-17;0;0;4.352138e-17;-2.88112;-1.110223e-16;1.110223e-16;0
-27.955265;30.89258;-1.923585;0;0;0;0;0;0;-3.26333e-17;0;0;0;0;3.26333e-17;-3.26333e-17;3.26333e-17;45;0;4.351106e-17;3.768169e-17;0;-6.52666e-17;0;0;6.52666e-17;-1.948877;0;0;0
-26.342279;30.89258;-1.059827;0;0;0;0;2.220446e-16;0;-2.718912e-18;0;0;0;0;2.220779e-16;-3.328778e-20;1.110556e-16;45;0;1.480741e-16;1.48063e-16;2.220446e-16;-5.437823e-18;0;0;5.437823e-18;-1.077704;2.220446e-16;-2.220446e-16;0
-24.729293;30.89258;-0.247673;0;0;0;0;0;0;0;0;0;0;0;0;0;0;45;0;0;0;0;0;0;0;0;-0.267455;0;0;0
-23.116307;30.89258;0.505436;0;0;0;0;2.220446e-16;2.220446e-16;-1.28593e-17;0;0;0;0;2.349039e-16;2.091853e-16;1.28593e-17;45;0;1.714573e-17;1.487726e-16;2.220446e-16;-2.175151e-17;-3.967087e-18;2.220446e-16;1.778442e-17;0.48599;4.440892e-16;-4.440892e-16;0
-21.503321;30.89258;1.200658;0;0;0;0;2.220446e-16;2.220446e-16;-4.721034e-18;0;0;0;0;2.267656e-16;2.173236e-16;4.721034e-18;45;0;6.294713e-18;1.481301e-16;2.220446e-16;-5.436762e-18;-4.005307e-18;2.220446e-16;1.431455e-18;1.190994;4.440892e-16;-4.440892e-16;0
-19.890335;30.89258;1.867775;0;0;0;0;-1.110223e-16;0;2.445858e-17;0;0;0;0;5.149462e-18;-1.161718e-16;6.066062e-17;45;0;8.088082e-17;7.922014e-17;-1.110223e-16;4.891716e-17;0;0;-4.891716e-17;1.846212;-1.110223e-16;1.110223e-16;0
-18.277349;30.89258;2.469876;0;0;0;0;0;2.220446e-16;-1.292112e-17;0;0;0;0;2.22794e-16;-7.493712e-19;1.117717e-16;45;0;1.490289e-16;1.487797e-16;0;-2.173368e-17;-4.108563e-18;2.220446e-16;1.762512e-17;2.441618;2.220446e-16;-2.220446e-16;0
-16.664363;30.89258;2.985469;0;0;0;0;2.220446e-16;0;-1.357731e-18;0;0;0;0;2.220529e-16;-8.301778e-21;1.110306e-16;45;0;1.480408e-16;1.48038e-16;2.220446e-16;-2.715463e-18;0;0;2.715463e-18;2.972683;2.220446e-16;-2.220446e-16;0
-15.051377;30.89258;3.460001;0;0;0;0;2.220446e-16;2.220446e-16;7.410758e-18;0;0;0;0;2.294554e-16;2.146338e-16;7.410758e-18;45;0;9.881011e-18;1.482769e-16;2.220446e-16;1.900306e-17;-4.18154e-18;2.220446e-16;-2.31846e-17;3.451932;4.440892e-16;-4.440892e-16;0
-13.438391;30.89258;3.906298;0;0;0;0;2.220446e-16;0;2.035944e-17;0;0;0;0;2.23896e-16;-1.851336e-18;1.128736e-16;45;0;1.504982e-16;1.498849e-16;2.220446e-16;4.071887e-17;0;0;-4.071887e-17;3.880031;2.220446e-16;-2.220446e-16;0
-11.825405;30.89258;4.269627;0;0;0;0;2.220446e-16;0;-1.086113e-17;0;0;0;0;2.225746e-16;-5.299983e-19;1.115523e-16;45;0;1.487364e-16;1.4856e-16;2.220446e-16;-2.172226e-17;0;0;2.172226e-17;4.253543;2.220446e-16;-2.220446e-16;0
-10.212419;30.89258;4.582068;0;0;0;0;0;0;2.172728e-17;0;0;0;0;2.172728e-17;-2.172728e-17;2.172728e-17;45;0;2.896971e-17;2.50885e-17;0;4.345456e-17;0;0;-4.345456e-17;4.587872;0;0;0
-8.599433;30.89258;4.912243;0;0;0;0;0;2.220446e-16;9.799865e-18;0;0;0;0;2.224763e-16;-4.316746e-19;1.11454e-16;45;0;1.486053e-16;1.484616e-16;0;2.172989e-17;-2.130164e-18;2.220446e-16;-2.386006e-17;4.912029;2.220446e-16;-2.220446e-16;0
-6.986447;30.89258;5.245143;0;0;0;0;0;0;0;0;0;0;0;0;0;0;45;0;0;0;0;0;0;0;0;5.220899;0;0;0
-5.373461;30.89258;5.509545;0;0;0;0;0;0;-1.085847e-17;0;0;0;0;1.085847e-17;-1.085847e-17;1.085847e-17;45;0;1.447797e-17;1.253829e-17;0;-2.171695e-17;0;0;2.171695e-17;5.48372;0;0;0
-3.760475;30.89258;5.698325;0;0;0;0;-1.110223e-16;2.220446e-16;-4.00914e-19;0;0;0;0;2.220451e-16;-1.110228e-16;1.665339e-16;45;0;2.220452e-16;1.958255e-16;-1.110223e-16;1.356027e-18;-2.157856e-18;2.220446e-16;-3.513883e-18;5.706447;1.110223e-16;-1.110223e-16;0
-2.147489;30.89258;5.912494;0;0;0;0;2.220446e-16;0;2.100711e-17;0;0;0;0;2.240146e-16;-1.969955e-18;1.129923e-16;45;0;1.506563e-16;1.50004e-16;2.220446e-16;4.201421e-17;0;0;-4.201421e-17;5.895546;2.220446e-16;-2.220446e-16;0
-0.534503;30.89258;6.081955;0;0;0;0;0;0;-1.084272e-17;0;0;0;0;1.084272e-17;-1.084272e-17;1.084272e-17;45;0;1.445697e-17;1.25201e-17;0;-2.168545e-17;0;0;2.168545e-17;6.0201;0;0;0
1.078483;30.89258;6.076461;0;0;0;0;0;0;0;0;0;0;0;0;0;0;45;0;0;0;0;0;0;0;0;6.059995;0;0;0
2.691469;30.89258;6.032794;0;0;0;0;0;0;1.084739e-17;0;0;0;0;1.084739e-17;-1.084739e-17;1.084739e-17;45;0;1.446319e-17;1.252549e-17;0;2.169478e-17;0;0;-2.169478e-17;6.040937;0;0;0
4.304455;30.89258;6.022824;0;0;0;0;-1.110223e-16;-1.110223e-16;-1.526868e-19;0;0;0;0;-1.108696e-16;-1.11175e-16;1.526868e-19;45;0;2.035824e-19;7.401508e-17;-1.110223e-16;-1.694719e-19;-1.359017e-19;-1.110223e-16;3.357013e-20;6.009005;-2.220446e-16;2.220446e-16;0
5.917441;30.89258;5.984118;0;0;0;0;0;2.220446e-16;-1.057979e-17;0;0;0;0;2.225476e-16;-5.029579e-19;1.115253e-16;45;0;1.487004e-16;1.48533e-16;0;-2.170275e-17;5.431669e-19;2.220446e-16;2.224592e-17;5.957901;2.220446e-16;-2.220446e-16;0
7.530427;30.89258;5.885355;0;0;0;0;2.220446e-16;2.220446e-16;8.812921e-19;0;0;0;0;2.229259e-16;2.211633e-16;8.812921e-19;45;0;1.175056e-18;1.480332e-16;2.220446e-16;6.783297e-19;1.084254e-18;2.220446e-16;4.059249e-19;5.862761;4.440892e-16;-4.440892e-16;0
9.143413;30.89258;5.741013;0;0;0;0;2.220446e-16;0;6.786888e-19;0;0;0;0;2.220467e-16;-2.074422e-21;1.110244e-16;45;0;1.480325e-16;1.480318e-16;2.220446e-16;1.357378e-18;0;0;-1.357378e-18;5.716942;2.220446e-16;-2.220446e-16;0
10.756399;30.89258;5.546556;0;0;0;0;0;2.220446e-16;2.280117e-17;0;0;0;0;2.243618e-16;-2.317209e-18;1.133395e-16;45;0;1.511193e-16;1.503529e-16;0;4.344618e-17;2.156158e-18;2.220446e-16;-4.129002e-17;5.527855;2.220446e-16;-2.220446e-16;0
12.369385;30.89258;5.316442;0;0;0;0;0;0;1.086027e-17;0;0;0;0;1.086027e-17;-1.086027e-17;1.086027e-17;45;0;1.448036e-17;1.254036e-17;0;2.172054e-17;0;0;-2.172054e-17;5.297858;0;0;0
13.982371;30.89258;5.048231;0;0;0;0;0;0;2.171783e-17;0;0;0;0;2.171783e-17;-2.171783e-17;2.171783e-17;45;0;2.895711e-17;2.507759e-17;0;4.343566e-17;0;0;-4.343566e-17;5.025834;0;0;0
15.595357;30.89258;4.728231;0;0;0;0;2.220446e-16;2.220446e-16;2.419986e-18;0;0;0;0;2.244646e-16;2.196246e-16;2.419986e-18;45;0;3.226648e-18;1.480561e-16;2.220446e-16;2.714133e-18;2.125839e-18;2.220446e-16;-5.882943e-19;4.705658;4.440892e-16;-4.440892e-16;0
17.208343;30.89258;4.352303;0;0;0;0;2.220446e-16;0;1.357343e-18;0;0;0;0;2.220529e-16;-8.297026e-21;1.110306e-16;45;0;1.480408e-16;1.48038e-16;2.220446e-16;2.714685e-18;0;0;-2.714685e-18;4.333243;2.220446e-16;-2.220446e-16;0
18.821329;30.89258;3.925502;0;0;0;0;-1.110223e-16;0;9.505118e-18;0;0;0;0;8.07897e-19;-1.118302e-16;5.631905e-17;45;0;7.509206e-17;7.482422e-17;-1.110223e-16;1.901024e-17;0;0;-1.901024e-17;3.911143;-1.110223e-16;1.110223e-16;0
20.434315;30.89258;3.455384;0;0;0;0;2.220446e-16;-1.110223e-16;1.118095e-17;0;0;0;0;2.224195e-16;-1.113972e-16;1.669084e-16;45;0;2.225445e-16;1.962501e-16;2.220446e-16;2.444321e-17;-2.081308e-18;-1.110223e-16;-2.652451e-17;3.444702;1.110223e-16;-1.110223e-16;0
22.047301;30.89258;2.950392;0;0;0;0;0;-1.110223e-16;-1.292842e-17;0;0;0;0;1.48562e-18;-1.125079e-16;5.699677e-17;45;0;7.59957e-17;7.550536e-17;0;-2.172408e-17;-4.132754e-18;-1.110223e-16;1.759133e-17;2.936127;-1.110223e-16;1.110223e-16;0
23.660287;30.89258;2.402148;0;0;0;0;0;0;-2.172053e-17;0;0;0;0;2.172053e-17;-2.172053e-17;2.172053e-17;45;0;2.896071e-17;2.508071e-17;0;-4.344107e-17;0;0;4.344107e-17;2.381289;0;0;0
25.273273;30.89258;1.795644;0;0;0;0;0;2.220446e-16;-8.839556e-18;0;0;0;0;2.223959e-16;-3.513452e-19;1.113736e-16;45;0;1.484982e-16;1.483812e-16;0;-2.172066e-17;4.041549e-18;2.220446e-16;2.576221e-17;1.771273;2.220446e-16;-2.220446e-16;0
26.886259;30.89258;1.122334;0;0;0;0;-1.110223e-16;2.220446e-16;-7.214171e-19;0;0;0;0;2.220462e-16;-1.110239e-16;1.66535e-16;45;0;2.220467e-16;1.958267e-16;-1.110223e-16;-5.431032e-18;3.988198e-18;2.220446e-16;9.41923e-18;1.102326;1.110223e-16;-1.110223e-16;0
28.499246;30.89258;0.393427;0;0;0;0;0;0;0;0;0;0;0;0;0;0;45;0;0;0;0;0;0;0;0;0.376328;0;0;0
30.112232;30.89258;-0.386028;0;0;0;0;0;2.220446e-16;2.562572e-17;0;0;0;0;2.249636e-16;-2.919039e-18;1.139413e-16;45;0;1.519218e-16;1.509582e-16;0;4.346798e-17;7.783467e-18;2.220446e-16;-3.568451e-17;-0.401693;2.220446e-16;-2.220446e-16;0
31.725218;30.89258;-1.211681;0;0;0;0;2.220446e-16;-1.110223e-16;-1.195324e-17;0;0;0;0;2.22473e-16;-1.114507e-16;1.669619e-16;45;0;2.226158e-16;1.963108e-16;2.220446e-16;-1.843592e-17;-5.470566e-18;-1.110223e-16;1.296535e-17;-1.213337;1.110223e-16;-1.110223e-16;0
-44.085126;29.279594;-15.19586;0;0;0;0;2.220446e-16;0;-3.302409e-17;0;0;0;0;2.268521e-16;-4.807496e-18;1.158298e-16;45;0;1.544397e-16;1.528624e-16;2.220446e-16;-6.604819e-17;0;0;6.604819e-17;-15.190391;2.220446e-16;-2.220446e-16;0
-42.47214;29.279594;-13.415914;0;0;0;0;-2.220446e-16;0;-2.723673e-17;0;0;0;0;3.292138e-18;-2.253367e-16;1.143144e-16;45;0;1.524193e-16;1.513338e-16;-2.220446e-16;-5.447347e-17;0;0;5.447347e-17;-13.449436;-2.220446e-16;2.220446e-16;0
-40.859154;29.279594;-11.745587;0;0;0;0;0;0;0;0;0;0;0;0;0;0;45;0;0;0;0;0;0;0;0;-11.793543;0;0;0
-39.246168;29.279594;-10.22429;0;0;0;0;0;2.220446e-16;-3.19623e-18;0;0;0;0;2.220906e-16;-4.599875e-20;1.110683e-16;45;0;1.480911e-16;1.480757e-16;0;0;-6.392461e-18;2.220446e-16;-6.392461e-18;-10.245976;2.220446e-16;-2.220446e-16;0
-37.633182;29.279594;-8.771009;0;0;0;0;2.220446e-16;0;-2.449863e-17;0;0;0;0;2.247155e-16;-2.670856e-18;1.136932e-16;45;0;1.515909e-16;1.507085e-16;2.220446e-16;-4.899725e-17;0;0;4.899725e-17;-8.807484;2.220446e-16;-2.220446e-16;0
-36.020196;29.279594;-7.426891;0;0;0;0;0;0;1.088682e-17;0;0;0;0;1.088682e-17;-1.088682e-17;1.088682e-17;45;0;1.451577e-17;1.257102e-17;0;2.177365e-17;0;0;-2.177365e-17;-7.464709;0;0;0
-34.40721;29.279594;-6.190855;0;0;0;0;0;0;-1.088558e-17;0;0;0;0;1.088558e-17;-1.088558e-17;1.088558e-17;45;0;1.45141e-17;1.256958e-17;0;-2.177115e-17;0;0;2.177115e-17;-6.217581;0;0;0
-32.794224;29.279594;-5.026988;0;0;0;0;2.220446e-16;-1.110223e-16;-9.095437e-18;0;0;0;0;2.222928e-16;-1.112705e-16;1.667816e-16;45;0;2.223755e-16;1.961064e-16;2.220446e-16;-2.176612e-17;3.575249e-18;-1.110223e-16;2.534137e-17;-5.062337;1.110223e-16;-1.110223e-16;0
-31.181238;29.279594;-3.961606;0;0;0;0;0;0;2.176047e-17;0;0;0;0;2.176047e-17;-2.176047e-17;2.176047e-17;45;0;2.901396e-17;2.512683e-17;0;4.352094e-17;0;0;-4.352094e-17;-3.986264;0;0;0
-29.568251;29.279594;-2.96665;0;0;0;0;0;0;0;0;0;0;0;0;0;0;45;0;0;0;0;0;0;0;0;-2.987631;0;0;0
-27.955265;29.279594;-2.034615;0;0;0;0;0;-1.110223e-16;1.898239e-18;0;0;0;0;3.244626e-20;-1.110548e-16;5.55436e-17;45;0;7.405813e-17;7.404732e-17;0;0;3.796478e-18;-1.110223e-16;3.796478e-18;-2.055502;-1.110223e-16;1.110223e-16;0
-26.342279;29.279594;-1.166084;0;0;0;0;2.220446e-16;-1.110223e-16;1.280294e-17;0;0;0;0;2.22536e-16;-1.115137e-16;1.670249e-16;45;0;2.226998e-16;1.963822e-16;2.220446e-16;2.175199e-17;3.853894e-18;-1.110223e-16;-1.78981e-17;-1.183571;1.110223e-16;-1.110223e-16;0
-24.729293;29.279594;-0.347724;0;0;0;0;-1.110223e-16;-1.110223e-16;-8.920054e-18;0;0;0;0;-1.021023e-16;-1.199424e-16;8.920054e-18;45;0;1.18934e-17;7.472811e-17;-1.110223e-16;-2.175044e-17;3.910332e-18;-1.110223e-16;2.566077e-17;-0.372129;-2.220446e-16;2.220446e-16;0
-23.116307;29.279594;0.404797;0;0;0;0;0;0;0;0;0;0;0;0;0;0;45;0;0;0;0;0;0;0;0;0.381699;0;0;0
-21.503321;29.279594;1.097766;0;0;0;0;0;0;-1.087103e-17;0;0;0;0;1.087103e-17;-1.087103e-17;1.087103e-17;45;0;1.449471e-17;1.255278e-17;0;-2.174206e-17;0;0;2.174206e-17;1.08604;0;0;0
-19.890335;29.279594;1.762688;0;0;0;0;2.220446e-16;-1.110223e-16;6.646398e-19;0;0;0;0;2.220459e-16;-1.110236e-16;1.665348e-16;45;0;2.220464e-16;1.958264e-16;2.220446e-16;-2.717591e-18;4.046871e-18;-1.110223e-16;6.764462e-18;1.740694;1.110223e-16;-1.110223e-16;0
-18.277349;29.279594;2.362944;0;0;0;0;2.220446e-16;-1.110223e-16;-8.813628e-18;0;0;0;0;2.222777e-16;-1.112554e-16;1.667665e-16;45;0;2.223554e-16;1.960892e-16;2.220446e-16;-2.173642e-17;4.109168e-18;-1.110223e-16;2.584559e-17;2.335723;1.110223e-16;-1.110223e-16;0
-16.664363;29.279594;2.877809;0;0;0;0;0;0;2.173272e-17;0;0;0;0;2.173272e-17;-2.173272e-17;2.173272e-17;45;0;2.897696e-17;2.509479e-17;0;4.346545e-17;0;0;-4.346545e-17;2.864596;0;0;0
-15.051377;29.279594;3.346405;0;0;0;0;0;2.220446e-16;-1.295482e-17;0;0;0;0;2.227979e-16;-7.532723e-19;1.117756e-16;45;0;1.490341e-16;1.487836e-16;0;-2.172589e-17;-4.18376e-18;2.220446e-16;1.754213e-17;3.341243;2.220446e-16;-2.220446e-16;0
-13.438391;29.279594;3.794133;0;0;0;0;-1.110223e-16;0;-9.503383e-18;0;0;0;0;8.07604e-19;-1.118299e-16;5.631876e-17;45;0;7.509167e-17;7.482393e-17;-1.110223e-16;-1.900677e-17;0;0;1.900677e-17;3.769431;-1.110223e-16;1.110223e-16;0
-11.825405;29.279594;4.165685;0;0;0;0;2.220446e-16;0;-1.357505e-18;0;0;0;0;2.220529e-16;-8.299017e-21;1.110306e-16;45;0;1.480408e-16;1.48038e-16;2.220446e-16;-2.715011e-18;0;0;2.715011e-18;4.14564;2.220446e-16;-2.220446e-16;0
-10.212419;29.279594;4.478698;0;0;0;0;-1.110223e-16;0;-9.504497e-18;0;0;0;0;8.077921e-19;-1.118301e-16;5.631894e-17;45;0;7.509193e-17;7.482411e-17;-1.110223e-16;-1.900899e-17;0;0;1.900899e-17;4.482708;-1.110223e-16;1.110223e-16;0
-8.599433;29.279594;4.807067;0;0;0;0;2.220446e-16;0;2.522031e-25;0;0;0;0;2.220446e-16;0;1.110223e-16;45;0;1.480297e-16;1.480297e-16;2.220446e-16;5.044061e-25;0;0;-5.044061e-25;4.807832;2.220446e-16;-2.220446e-16;0
-6.986447;29.279594;5.142616;0;0;0;0;-1.110223e-16;-1.110223e-16;1.260755e-17;0;0;0;0;-9.841475e-17;-1.236299e-16;1.260755e-17;45;0;1.681007e-17;7.543298e-17;-1.110223e-16;2.30765e-17;2.138604e-18;-1.110223e-16;-2.093789e-17;5.114885;-2.220446e-16;2.220446e-16;0
-5.373461;29.279594;5.401651;0;0;0;0;2.220446e-16;-1.110223e-16;1.071478e-17;0;0;0;0;2.22389e-16;-1.113666e-16;1.668778e-16;45;0;2.225037e-16;1.962154e-16;2.220446e-16;2.035216e-17;1.077392e-18;-1.110223e-16;-1.927477e-17;5.372799;1.110223e-16;-1.110223e-16;0
-3.760475;29.279594;5.580001;0;0;0;0;-1.110223e-16;0;2.237099e-17;0;0;0;0;4.338235e-18;-1.153605e-16;5.984938e-17;45;0;7.979918e-17;7.839312e-17;-1.110223e-16;4.474197e-17;0;0;-4.474197e-17;5.586921;-1.110223e-16;1.110223e-16;0
-2.147489;29.279594;5.784287;0;0;0;0;0;0;0;0;0;0;0;0;0;0;45;0;0;0;0;0;0;0;0;5.768275;0;0;0
-0.534503;29.279594;5.948966;0;0;0;0;0;-1.110223e-16;-1.055717e-17;0;0;0;0;9.949698e-19;-1.120173e-16;5.650612e-17;45;0;7.53415e-17;7.501204e-17;0;-2.165725e-17;5.429177e-19;-1.110223e-16;2.220017e-17;5.892474;-1.110223e-16;1.110223e-16;0
1.078483;29.279594;5.955737;0;0;0;0;2.220446e-16;0;8.465779e-20;0;0;0;0;2.220446e-16;-3.227703e-23;1.110223e-16;45;0;1.480298e-16;1.480298e-16;2.220446e-16;1.693156e-19;0;0;-1.693156e-19;5.936581;2.220446e-16;-2.220446e-16;0
2.691469;29.279594;5.911911;0;0;0;0;0;0;0;0;0;0;0;0;0;0;45;0;0;0;0;0;0;0;0;5.923513;0;0;0
4.304455;29.279594;5.898117;0;0;0;0;0;-1.110223e-16;-6.79505e-20;0;0;0;0;4.158866e-23;-1.110223e-16;5.551119e-17;45;0;7.401492e-17;7.401491e-17;0;0;-1.35901e-19;-1.110223e-16;-1.35901e-19;5.89331;-1.110223e-16;1.110223e-16;0
5.917441;29.279594;5.858906;0;0;0;0;0;0;-1.08453e-17;0;0;0;0;1.08453e-17;-1.08453e-17;1.08453e-17;45;0;1.44604e-17;1.252307e-17;0;-2.16906e-17;0;0;2.16906e-17;5.843662;0;0;0
7.530427;29.279594;5.767333;0;0;0;0;0;-1.110223e-16;-5.422177e-19;0;0;0;0;2.648053e-21;-1.110249e-16;5.55138e-17;45;0;7.40184e-17;7.401752e-17;0;0;-1.084435e-18;-1.110223e-16;-1.084435e-18;5.750063;-1.110223e-16;1.110223e-16;0
9.143413;29.279594;5.626452;0;0;0;0;0;0;2.169389e-17;0;0;0;0;2.169389e-17;-2.169389e-17;2.169389e-17;45;0;2.892518e-17;2.504994e-17;0;4.338777e-17;0;0;-4.338777e-17;5.606176;0;0;0
10.756399;29.279594;5.432726;0;0;0;0;2.220446e-16;0;6.779247e-19;0;0;0;0;2.220467e-16;-2.069753e-21;1.110244e-16;45;0;1.480325e-16;1.480318e-16;2.220446e-16;1.355849e-18;0;0;-1.355849e-18;5.41716;2.220446e-16;-2.220446e-16;0
12.369385;29.279594;5.201356;0;0;0;0;0;0;-6.780571e-19;0;0;0;0;6.780571e-19;-6.780571e-19;6.780571e-19;45;0;9.040761e-19;7.829529e-19;0;-1.356114e-18;0;0;1.356114e-18;5.186072;0;0;0
13.982371;29.279594;4.932181;0;0;0;0;-1.110223e-16;-1.110223e-16;-2.425424e-18;0;0;0;0;-1.085969e-16;-1.134477e-16;2.425424e-18;45;0;3.233898e-18;7.406784e-17;-1.110223e-16;-2.712011e-18;-2.138836e-18;-1.110223e-16;5.731744e-19;4.911933;-2.220446e-16;2.220446e-16;0
15.595357;29.279594;4.609504;0;0;0;0;0;0;1.051029e-22;0;0;0;0;1.051029e-22;-1.051029e-22;1.051029e-22;45;0;1.401372e-22;1.213624e-22;0;2.102058e-22;0;0;-2.102058e-22;4.591079;0;0;0
17.208343;29.279594;4.238705;0;0;0;0;-1.110223e-16;0;-1.356809e-18;0;0;0;0;1.657915e-20;-1.110389e-16;5.552773e-17;45;0;7.403697e-17;7.403145e-17;-1.110223e-16;-2.713618e-18;0;0;2.713618e-18;4.219804;-1.110223e-16;1.110223e-16;0
18.821329;29.279594;3.818379;0;0;0;0;2.220446e-16;0;-9.503092e-18;0;0;0;0;2.224506e-16;-4.059722e-19;1.114283e-16;45;0;1.48571e-16;1.484359e-16;2.220446e-16;-1.900618e-17;0;0;1.900618e-17;3.800405;2.220446e-16;-2.220446e-16;0
20.434315;29.279594;3.350554;0;0;0;0;2.220446e-16;0;2.308524e-17;0;0;0;0;2.244193e-16;-2.3747e-18;1.13397e-16;45;0;1.51196e-16;1.504107e-16;2.220446e-16;4.617049e-17;0;0;-4.617049e-17;3.334561;2.220446e-16;-2.220446e-16;0
22.047301;29.279594;2.83842;0;0;0;0;2.220446e-16;2.220446e-16;2.514741e-17;0;0;0;0;2.47192e-16;1.968972e-16;2.514741e-17;45;0;3.352989e-17;1.508509e-16;2.220446e-16;4.616615e-17;4.12867e-18;2.220446e-16;-4.203748e-17;2.823731;4.440892e-16;-4.440892e-16;0
23.660287;29.279594;2.281673;0;0;0;0;0;0;2.172113e-17;0;0;0;0;2.172113e-17;-2.172113e-17;2.172113e-17;45;0;2.896151e-17;2.50814e-17;0;4.344227e-17;0;0;-4.344227e-17;2.265313;0;0;0
25.273273;29.279594;1.67091;0;0;0;0;2.220446e-16;0;-1.900651e-17;0;0;0;0;2.236598e-16;-1.615165e-18;1.126375e-16;45;0;1.501833e-16;1.496478e-16;2.220446e-16;-3.801302e-17;0;0;3.801302e-17;1.653026;2.220446e-16;-2.220446e-16;0
26.886259;29.279594;0.998606;0;0;0;0;-1.110223e-16;-1.110223e-16;-4.710645e-18;0;0;0;0;-1.063117e-16;-1.157329e-16;4.710645e-18;45;0;6.28086e-18;7.421447e-17;-1.110223e-16;-5.431613e-18;-3.989677e-18;-1.110223e-16;1.441937e-18;0.984074;-2.220446e-16;2.220446e-16;0
28.499246;29.279594;0.273374;0;0;0;0;-1.110223e-16;-1.110223e-16;8.896883e-18;0;0;0;0;-1.021254e-16;-1.199192e-16;8.896883e-18;45;0;1.186251e-17;7.472443e-17;-1.110223e-16;2.173581e-17;-3.942045e-18;-1.110223e-16;-2.567786e-17;0.25981;-2.220446e-16;2.220446e-16;0
30.112232;29.279594;-0.501864;0;0;0;0;0;-1.110223e-16;-1.94431e-18;0;0;0;0;3.403984e-20;-1.110563e-16;5.554519e-17;45;0;7.406025e-17;7.404891e-17;0;0;-3.888619e-18;-1.110223e-16;-3.888619e-18;-0.519656;-1.110223e-16;1.110223e-16;0
31.725218;29.279594;-1.338661;0;0;0;0;2.220446e-16;-1.110223e-16;1.61193e-17;0;0;0;0;2.228229e-16;-1.118006e-16;1.673118e-16;45;0;2.230823e-16;1.967075e-16;2.220446e-16;3.769205e-17;-5.453447e-18;-1.110223e-16;-4.314549e-17;-1.336574;1.110223e-16;-1.110223e-16;0
-44.085126;27.666608;-15.285366;0;0;0;0;2.220446e-16;-2.220446e-16;3.485682e-17;0;0;0;0;2.247639e-16;-2.247639e-16;2.247639e-16;45;0;2.996852e-16;2.59535e-16;2.220446e-16;1.112649e-16;-4.155122e-17;-2.220446e-16;-1.528161e-16;-15.293127;0;0;0
-42.47214;27.666608;-13.527431;0;0;0;0;0;-1.110223e-16;-6.349707e-18;0;0;0;0;3.619791e-19;-1.113843e-16;5.587313e-17;45;0;7.449751e-17;7.437714e-17;0;0;-1.269941e-17;-1.110223e-16;-1.269941e-17;-13.552721;-1.110223e-16;1.110223e-16;0
-40.859154;27.666608;-11.849224;0;0;0;0;0;0;-1.089342e-17;0;0;0;0;1.089342e-17;-1.089342e-17;1.089342e-17;45;0;1.452457e-17;1.257864e-17;0;-2.178685e-17;0;0;2.178685e-17;-11.901623;0;0;0
-39.246168;27.666608;-10.328612;0;0;0;0;0;-1.110223e-16;-9.291228e-18;0;0;0;0;7.721929e-19;-1.117945e-16;5.628334e-17;45;0;7.504446e-17;7.478839e-17;0;-2.178223e-17;3.199772e-18;-1.110223e-16;2.4982e-17;-10.354001;-1.110223e-16;1.110223e-16;0
-37.633182;27.666608;-8.88269;0;0;0;0;0;0;2.177743e-17;0;0;0;0;2.177743e-17;-2.177743e-17;2.177743e-17;45;0;2.903658e-17;2.514641e-17;0;4.355487e-17;0;0;-4.355487e-17;-8.916483;0;0;0
-36.020196;27.666608;-7.538556;0;0;0;0;0;2.220446e-16;-3.393067e-18;0;0;0;0;2.220964e-16;-5.183739e-20;1.110741e-16;45;0;1.480989e-16;1.480816e-16;0;0;-6.786133e-18;2.220446e-16;-6.786133e-18;-7.572931;2.220446e-16;-2.220446e-16;0
-34.40721;27.666608;-6.300841;0;0;0;0;2.220446e-16;0;-1.360598e-17;0;0;0;0;2.228752e-16;-8.306115e-19;1.118529e-16;45;0;1.491372e-16;1.488611e-16;2.220446e-16;-2.721196e-17;0;0;2.721196e-17;-6.324495;2.220446e-16;-2.220446e-16;0
-32.794224;27.666608;-5.139274;0;0;0;0;0;0;-1.08825e-17;0;0;0;0;1.08825e-17;-1.08825e-17;1.08825e-17;45;0;1.451e-17;1.256602e-17;0;-2.176499e-17;0;0;2.176499e-17;-5.169286;0;0;0
-31.181238;27.666608;-4.073001;0;0;0;0;2.220446e-16;2.220446e-16;4.499767e-18;0;0;0;0;2.265444e-16;2.175448e-16;4.499767e-18;45;0;5.99969e-18;1.481209e-16;2.220446e-16;1.63219e-17;-7.322365e-18;2.220446e-16;-2.364426e-17;-4.093374;4.440892e-16;-4.440892e-16;0
-29.568251;27.666608;-3.074216;0;0;0;0;2.220446e-16;0;1.904015e-17;0;0;0;0;2.236655e-16;-1.620846e-18;1.126432e-16;45;0;1.501909e-16;1.496535e-16;2.220446e-16;3.808029e-17;0;0;-3.808029e-17;-3.094878;2.220446e-16;-2.220446e-16;0
-27.955265;27.666608;-2.143555;0;0;0;0;0;0;0;0;0;0;0;0;0;0;45;0;0;0;0;0;0;0;0;-2.162585;0;0;0
-26.342279;27.666608;-1.27334;0;0;0;0;0;0;0;0;0;0;0;0;0;0;45;0;0;0;0;0;0;0;0;-1.290999;0;0;0
-24.729293;27.666608;-0.455732;0;0;0;0;-1.110223e-16;0;-8.154164e-18;0;0;0;0;5.95696e-19;-1.11618e-16;5.610685e-17;45;0;7.480913e-17;7.461135e-17;-1.110223e-16;-1.630833e-17;0;0;1.630833e-17;-0.480099;-1.110223e-16;1.110223e-16;0
-23.116307;27.666608;0.290984;0;0;0;0;-1.110223e-16;0;-1.902012e-17;0;0;0;0;3.168085e-18;-1.141904e-16;5.867923e-17;45;0;7.823898e-17;7.720462e-17;-1.110223e-16;-3.804023e-17;0;0;3.804023e-17;0.273544;-1.110223e-16;1.110223e-16;0
-21.503321;27.666608;0.98678;0;0;0;0;2.220446e-16;0;-1.358574e-17;0;0;0;0;2.228728e-16;-8.281514e-19;1.118504e-16;45;0;1.491339e-16;1.488587e-16;2.220446e-16;-2.717148e-17;0;0;2.717148e-17;0.97813;2.220446e-16;-2.220446e-16;0
-19.890335;27.666608;1.657471;0;0;0;0;2.220446e-16;2.220446e-16;1.835673e-17;0;0;0;0;2.404013e-16;2.036879e-16;1.835673e-17;45;0;2.447564e-17;1.495396e-16;2.220446e-16;4.075904e-17;-4.045581e-18;2.220446e-16;-4.480462e-17;1.633493;4.440892e-16;-4.440892e-16;0
-18.277349;27.666608;2.260291;0;0;0;0;2.220446e-16;2.220446e-16;1.832166e-17;0;0;0;0;2.403663e-16;2.03723e-16;1.832166e-17;45;0;2.442888e-17;1.495339e-16;2.220446e-16;4.075201e-17;-4.108689e-18;2.220446e-16;-4.48607e-17;2.228907;4.440892e-16;-4.440892e-16;0
-16.664363;27.666608;2.777182;0;0;0;0;2.220446e-16;0;-1.357913e-18;0;0;0;0;2.220529e-16;-8.303996e-21;1.110306e-16;45;0;1.480408e-16;1.48038e-16;2.220446e-16;-2.715825e-18;0;0;2.715825e-18;2.756199;2.220446e-16;-2.220446e-16;0
-15.051377;27.666608;3.241387;0;0;0;0;0;0;-1.086202e-17;0;0;0;0;1.086202e-17;-1.086202e-17;1.086202e-17;45;0;1.44827e-17;1.254238e-17;0;-2.172405e-17;0;0;2.172405e-17;3.230919;0;0;0
-13.438391;27.666608;3.682503;0;0;0;0;-1.110223e-16;2.220446e-16;1.010941e-17;0;0;0;0;2.223512e-16;-1.113289e-16;1.6684e-16;45;0;2.224534e-16;1.961726e-16;-1.110223e-16;2.443369e-17;-4.214865e-18;2.220446e-16;-2.864856e-17;3.659482;1.110223e-16;-1.110223e-16;0
-11.825405;27.666608;4.058837;0;0;0;0;0;0;0;0;0;0;0;0;0;0;45;0;0;0;0;0;0;0;0;4.037958;0;0;0
-10.212419;27.666608;4.37291;0;0;0;0;-1.110223e-16;0;-5.328894e-24;0;0;0;0;2.58845e-31;-1.110223e-16;5.551115e-17;45;0;7.401487e-17;7.401487e-17;-1.110223e-16;-1.065779e-23;0;0;1.065779e-23;4.376932;-1.110223e-16;1.110223e-16;0
-8.599433;27.666608;4.697236;0;0;0;0;-1.110223e-16;2.220446e-16;2.921744e-19;0;0;0;0;2.220449e-16;-1.110226e-16;1.665337e-16;45;0;2.220449e-16;1.958252e-16;-1.110223e-16;2.71497e-18;-2.130621e-18;2.220446e-16;-4.845591e-18;4.701052;1.110223e-16;-1.110223e-16;0
-6.986447;27.666608;5.03251;0;0;0;0;0;-1.110223e-16;1.192598e-17;0;0;0;0;1.266635e-18;-1.122889e-16;5.677778e-17;45;0;7.570372e-17;7.528506e-17;0;2.171276e-17;2.139205e-18;-1.110223e-16;-1.957355e-17;5.005275;-1.110223e-16;1.110223e-16;0
-5.373461;27.666608;5.285951;0;0;0;0;-1.110223e-16;2.220446e-16;-3.996461e-19;0;0;0;0;2.220451e-16;-1.110228e-16;1.665339e-16;45;0;2.220452e-16;1.958255e-16;-1.110223e-16;1.356271e-18;-2.155563e-18;2.220446e-16;-3.511834e-18;5.260206;1.110223e-16;-1.110223e-16;0
-3.760475;27.666608;5.45945;0;0;0;0;2.220446e-16;0;-6.779418e-19;0;0;0;0;2.220467e-16;-2.069858e-21;1.110244e-16;45;0;1.480325e-16;1.480318e-16;2.220446e-16;-1.355884e-18;0;0;1.355884e-18;5.466763;2.220446e-16;-2.220446e-16;0
-2.147489;27.666608;5.650589;0;0;0;0;0;2.220446e-16;-1.08161e-18;0;0;0;0;2.220499e-16;-5.268547e-21;1.110276e-16;45;0;1.480368e-16;1.48035e-16;0;0;-2.16322e-18;2.220446e-16;-2.16322e-18;5.634955;2.220446e-16;-2.220446e-16;0
-0.534503;27.666608;5.79841;0;0;0;0;0;-1.110223e-16;2.189068e-17;0;0;0;0;4.160364e-18;-1.151827e-16;5.967151e-17;45;0;7.956202e-17;7.821212e-17;0;4.32384e-17;5.429595e-19;-1.110223e-16;-4.269544e-17;5.751703;-1.110223e-16;1.110223e-16;0
1.078483;27.666608;5.82337;0;0;0;0;0;2.220446e-16;1.080194e-17;0;0;0;0;2.225689e-16;-5.242507e-19;1.115465e-16;45;0;1.487287e-16;1.485543e-16;0;2.163786e-17;-3.39799e-20;2.220446e-16;-2.167184e-17;5.800214;2.220446e-16;-2.220446e-16;0
2.691469;27.666608;5.799623;0;0;0;0;-1.110223e-16;0;2.164729e-17;0;0;0;0;4.071505e-18;-1.150938e-16;5.958265e-17;45;0;7.944354e-17;7.812175e-17;-1.110223e-16;4.329457e-17;0;0;-4.329457e-17;5.801388;-1.110223e-16;1.110223e-16;0
4.304455;27.666608;5.790778;0;0;0;0;0;0;0;0;0;0;0;0;0;0;45;0;0;0;0;0;0;0;0;5.778217;0;0;0
5.917441;27.666608;5.740715;0;0;0;0;2.220446e-16;0;2.204433e-17;0;0;0;0;2.24212e-16;-2.167379e-18;1.131897e-16;45;0;1.509196e-16;1.502023e-16;2.220446e-16;4.408866e-17;0;0;-4.408866e-17;5.728282;2.220446e-16;-2.220446e-16;0
7.530427;27.666608;5.644807;0;0;0;0;-1.110223e-16;-1.110223e-16;9.9663e-18;0;0;0;0;-1.01056e-16;-1.209886e-16;9.9663e-18;45;0;1.32884e-17;7.490418e-17;-1.110223e-16;2.101698e-17;-1.084381e-18;-1.110223e-16;-2.210136e-17;5.631737;-2.220446e-16;2.220446e-16;0
9.143413;27.666608;5.501866;0;0;0;0;0;0;0;0;0;0;0;0;0;0;45;0;0;0;0;0;0;0;0;5.488545;0;0;0
10.756399;27.666608;5.309483;0;0;0;0;-1.110223e-16;0;-6.781151e-19;0;0;0;0;4.141716e-21;-1.110264e-16;5.551529e-17;45;0;7.402039e-17;7.401901e-17;-1.110223e-16;-1.35623e-18;0;0;1.35623e-18;5.300721;-1.110223e-16;1.110223e-16;0
12.369385;27.666608;5.07855;0;0;0;0;2.220446e-16;0;6.782042e-19;0;0;0;0;2.220467e-16;-2.071461e-21;1.110244e-16;45;0;1.480325e-16;1.480318e-16;2.220446e-16;1.356408e-18;0;0;-1.356408e-18;5.070201;2.220446e-16;-2.220446e-16;0
13.982371;27.666608;4.809125;0;0;0;0;0;0;-1.085156e-17;0;0;0;0;1.085156e-17;-1.085156e-17;1.085156e-17;45;0;1.446875e-17;1.253031e-17;0;-2.170313e-17;0;0;2.170313e-17;4.794656;0;0;0
15.595357;27.666608;4.48378;0;0;0;0;0;2.220446e-16;2.125831e-18;0;0;0;0;2.22065e-16;-2.035061e-20;1.110427e-16;45;0;1.480569e-16;1.480501e-16;0;0;4.251662e-18;2.220446e-16;4.251662e-18;4.472966;2.220446e-16;-2.220446e-16;0
17.208343;27.666608;4.117649;0;0;0;0;0;-1.110223e-16;9.795568e-18;0;0;0;0;8.576438e-19;-1.118799e-16;5.636879e-17;45;0;7.515839e-17;7.487415e-17;0;2.170416e-17;-2.113028e-18;-1.110223e-16;-2.381719e-17;4.102642;-1.110223e-16;1.110223e-16;0
18.821329;27.666608;3.704181;0;0;0;0;2.220446e-16;0;1.3568e-18;0;0;0;0;2.220529e-16;-8.290395e-21;1.110306e-16;45;0;1.480408e-16;1.48038e-16;2.220446e-16;2.7136e-18;0;0;-2.7136e-18;3.686385;2.220446e-16;-2.220446e-16;0
20.434315;27.666608;3.240986;0;0;0;0;0;2.220446e-16;-8.778669e-18;0;0;0;0;2.223911e-16;-3.465293e-19;1.113688e-16;45;0;1.484918e-16;1.483764e-16;0;-2.171948e-17;4.162146e-18;2.220446e-16;2.588163e-17;3.222452;2.220446e-16;-2.220446e-16;0
22.047301;27.666608;2.727251;0;0;0;0;0;2.220446e-16;3.421045e-18;0;0;0;0;2.220973e-16;-5.269559e-20;1.11075e-16;45;0;1.481e-16;1.480824e-16;0;2.715519e-18;4.126571e-18;2.220446e-16;1.411051e-18;2.710798;2.220446e-16;-2.220446e-16;0
23.660287;27.666608;2.166775;0;0;0;0;2.220446e-16;0;-1.086325e-17;0;0;0;0;2.225748e-16;-5.30205e-19;1.115525e-16;45;0;1.487367e-16;1.485603e-16;2.220446e-16;-2.172651e-17;0;0;2.172651e-17;2.149872;2.220446e-16;-2.220446e-16;0
25.273273;27.666608;1.554603;0;0;0;0;0;0;-2.172896e-17;0;0;0;0;2.172896e-17;-2.172896e-17;2.172896e-17;45;0;2.897194e-17;2.509044e-17;0;-4.345792e-17;0;0;4.345792e-17;1.536;0;0;0
26.886259;27.666608;0.884537;0;0;0;0;-1.110223e-16;0;8.150547e-18;0;0;0;0;5.951705e-19;-1.116175e-16;5.610632e-17;45;0;7.480843e-17;7.461083e-17;-1.110223e-16;1.630109e-17;0;0;-1.630109e-17;0.867757;-1.110223e-16;1.110223e-16;0
28.499246;27.666608;0.16323;0;0;0;0;0;2.220446e-16;1.284277e-17;0;0;0;0;2.227849e-16;-7.403409e-19;1.117626e-16;45;0;1.490169e-16;1.487707e-16;0;2.174052e-17;3.945028e-18;2.220446e-16;-1.779549e-17;0.14588;2.220446e-16;-2.220446e-16;0
30.112232;27.666608;-0.609323;0;0;0;0;-1.110223e-16;2.220446e-16;2.096952e-17;0;0;0;0;2.233596e-16;-1.123373e-16;1.678485e-16;45;0;2.23798e-16;1.973162e-16;-1.110223e-16;3.805419e-17;3.884865e-18;2.220446e-16;-3.416932e-17;-0.634774;1.110223e-16;-1.110223e-16;0
31.725218;27.666608;-1.459379;0;0;0;0;2.220446e-16;0;4.753252e-18;0;0;0;0;2.221463e-16;-1.01705e-19;1.11124e-16;45;0;1.481653e-16;1.481315e-16;2.220446e-16;9.506503e-18;0;0;-9.506503e-18;-1.45705;2.220446e-16;-2.220446e-16;0
-42.47214;26.053622;-13.633728;0;0;0;0;0;0;0;0;0;0;0;0;0;0;45;0;0;0;0;0;0;0;0;-13.653566;0;0;0
-40.859154;26.053622;-11.951599;0;0;0;0;0;-1.110223e-16;2.332858e-17;0;0;0;0;4.702722e-18;-1.15725e-16;6.021387e-17;45;0;8.028516e-17;7.87644e-17;0;4.35702e-17;3.086956e-18;-1.110223e-16;-4.048325e-17;-12.010195;-1.110223e-16;1.110223e-16;0
-39.246168;26.053622;-10.438222;0;0;0;0;0;2.220446e-16;1.857833e-17;0;0;0;0;2.235883e-16;-1.543706e-18;1.12566e-16;45;0;1.50088e-16;1.495761e-16;0;4.356126e-17;-6.404592e-18;2.220446e-16;-4.996585e-17;-10.462407;2.220446e-16;-2.220446e-16;0
-37.633182;26.053622;-8.994771;0;0;0;0;0;-1.110223e-16;1.641788e-18;0;0;0;0;2.427331e-20;-1.110466e-16;5.553542e-17;45;0;7.404723e-17;7.403914e-17;0;0;3.283576e-18;-1.110223e-16;3.283576e-18;-9.023933;-1.110223e-16;1.110223e-16;0
-36.020196;26.053622;-7.643303;0;0;0;0;2.220446e-16;0;1.633469e-17;0;0;0;0;2.232398e-16;-1.195227e-18;1.122175e-16;45;0;1.496234e-16;1.492266e-16;2.220446e-16;3.266939e-17;0;0;-3.266939e-17;-7.678998;2.220446e-16;-2.220446e-16;0
-34.40721;26.053622;-6.407463;0;0;0;0;0;-1.110223e-16;-9.142088e-18;0;0;0;0;7.477652e-19;-1.117701e-16;5.625892e-17;45;0;7.501189e-17;7.476388e-17;0;-2.177413e-17;3.489953e-18;-1.110223e-16;2.526408e-17;-6.429686;-1.110223e-16;1.110223e-16;0
-32.794224;26.053622;-5.24628;0;0;0;0;-1.110223e-16;2.220446e-16;-1.174052e-17;0;0;0;0;2.224579e-16;-1.114356e-16;1.669468e-16;45;0;2.225957e-16;1.962936e-16;-1.110223e-16;-1.632814e-17;-7.1529e-18;2.220446e-16;9.17524e-18;-5.275182;1.110223e-16;-1.110223e-16;0
-31.181238;26.053622;-4.177265;0;0;0;0;0;2.220446e-16;9.053563e-18;0;0;0;0;2.224131e-16;-3.685349e-19;1.113908e-16;45;0;1.485211e-16;1.483984e-16;0;2.17661e-17;-3.658976e-18;2.220446e-16;-2.542508e-17;-4.198681;2.220446e-16;-2.220446e-16;0
-29.568251;26.053622;-3.175086;0;0;0;0;-1.110223e-16;0;-1.904303e-17;0;0;0;0;3.175516e-18;-1.141978e-16;5.868666e-17;45;0;7.824889e-17;7.721216e-17;-1.110223e-16;-3.808606e-17;0;0;3.808606e-17;-3.199743;-1.110223e-16;1.110223e-16;0
-27.955265;26.053622;-2.24791;0;0;0;0;2.220446e-16;0;-2.719467e-18;0;0;0;0;2.220779e-16;-3.330138e-20;1.110556e-16;45;0;1.480741e-16;1.48063e-16;2.220446e-16;-5.438934e-18;0;0;5.438934e-18;-2.267835;2.220446e-16;-2.220446e-16;0
-26.342279;26.053622;-1.381807;0;0;0;0;0;0;4.350272e-17;0;0;0;0;4.350272e-17;-4.350272e-17;4.350272e-17;45;0;5.800363e-17;5.023262e-17;0;8.700544e-17;0;0;-8.700544e-17;-1.398365;0;0;0
-24.729293;26.053622;-0.568225;0;0;0;0;-1.110223e-16;-1.110223e-16;-6.197026e-18;0;0;0;0;-1.048253e-16;-1.172193e-16;6.197026e-18;45;0;8.262701e-18;7.435997e-17;-1.110223e-16;-1.630882e-17;3.914767e-18;-1.110223e-16;2.022358e-17;-0.589715;-2.220446e-16;2.220446e-16;0
-23.116307;26.053622;0.176245;0;0;0;0;-1.110223e-16;-1.110223e-16;-6.168566e-18;0;0;0;0;-1.048537e-16;-1.171909e-16;6.168566e-18;45;0;8.224755e-18;7.435681e-17;-1.110223e-16;-1.630506e-17;3.967927e-18;-1.110223e-16;2.027299e-17;0.163355;-2.220446e-16;2.220446e-16;0
-21.503321;26.053622;0.877001;0;0;0;0;-1.110223e-16;2.220446e-16;7.165306e-19;0;0;0;0;2.220461e-16;-1.110238e-16;1.66535e-16;45;0;2.220467e-16;1.958267e-16;-1.110223e-16;5.434771e-18;-4.00171e-18;2.220446e-16;-9.436481e-18;0.868376;1.110223e-16;-1.110223e-16;0
-19.890335;26.053622;1.549437;0;0;0;0;0;0;1.086675e-17;0;0;0;0;1.086675e-17;-1.086675e-17;1.086675e-17;45;0;1.448899e-17;1.254784e-17;0;2.173349e-17;0;0;-2.173349e-17;1.523878;0;0;0
-18.277349;26.053622;2.147058;0;0;0;0;0;-1.110223e-16;3.412556e-18;0;0;0;0;1.047948e-19;-1.111271e-16;5.561595e-17;45;0;7.41546e-17;7.411969e-17;0;2.715286e-18;4.109826e-18;-1.110223e-16;1.39454e-18;2.118475;-1.110223e-16;1.110223e-16;0
-16.664363;26.053622;2.665288;0;0;0;0;0;-1.110223e-16;1.158067e-17;0;0;0;0;1.195108e-18;-1.122174e-16;5.670626e-17;45;0;7.560834e-17;7.521314e-17;0;1.900056e-17;4.160775e-18;-1.110223e-16;-1.483979e-17;2.643859;-1.110223e-16;1.110223e-16;0
-15.051377;26.053622;3.12743;0;0;0;0;2.220446e-16;2.220446e-16;-1.430622e-17;0;0;0;0;2.363508e-16;2.077384e-16;1.430622e-17;45;0;1.907496e-17;1.489486e-16;2.220446e-16;-2.442443e-17;-4.18801e-18;2.220446e-16;2.023642e-17;3.117243;4.440892e-16;-4.440892e-16;0
-13.438391;26.053622;3.566135;0;0;0;0;0;2.220446e-16;-1.29622e-17;0;0;0;0;2.227987e-16;-7.541276e-19;1.117764e-16;45;0;1.490352e-16;1.487845e-16;0;-2.171176e-17;-4.212643e-18;2.220446e-16;1.749912e-17;3.547003;2.220446e-16;-2.220446e-16;0
-11.825405;26.053622;3.952816;0;0;0;0;0;2.220446e-16;9.797393e-18;0;0;0;0;2.224761e-16;-4.314572e-19;1.114538e-16;45;0;1.48605e-16;1.484614e-16;0;2.171929e-17;-2.124506e-18;2.220446e-16;-2.38438e-17;3.928422;2.220446e-16;-2.220446e-16;0
-10.212419;26.053622;4.269908;0;0;0;0;-1.110223e-16;2.220446e-16;9.794914e-18;0;0;0;0;2.223324e-16;-1.113101e-16;1.668213e-16;45;0;2.224283e-16;1.961513e-16;-1.110223e-16;2.172316e-17;-2.133335e-18;2.220446e-16;-2.38565e-17;4.269824;1.110223e-16;-1.110223e-16;0
-8.599433;26.053622;4.589232;0;0;0;0;2.220446e-16;2.220446e-16;-2.278587e-17;0;0;0;0;2.448305e-16;1.992587e-16;2.278587e-17;45;0;3.038116e-17;1.503498e-16;2.220446e-16;-4.344014e-17;-2.131596e-18;2.220446e-16;4.130855e-17;4.59263;4.440892e-16;-4.440892e-16;0
-6.986447;26.053622;4.91929;0;0;0;0;-1.110223e-16;0;6.783152e-19;0;0;0;0;4.144161e-21;-1.110264e-16;5.551529e-17;45;0;7.40204e-17;7.401901e-17;-1.110223e-16;1.35663e-18;0;0;-1.35663e-18;4.894657;-1.110223e-16;1.110223e-16;0
-5.373461;26.053622;5.171921;0;0;0;0;2.220446e-16;0;-1.153573e-17;0;0;0;0;2.226423e-16;-5.976991e-19;1.1162e-16;45;0;1.488267e-16;1.486278e-16;2.220446e-16;-2.307146e-17;0;0;2.307146e-17;5.149206;2.220446e-16;-2.220446e-16;0
-3.760475;26.053622;5.348458;0;0;0;0;-1.110223e-16;2.220446e-16;-1.139575e-17;0;0;0;0;2.224341e-16;-1.114118e-16;1.669229e-16;45;0;2.225639e-16;1.962665e-16;-1.110223e-16;-2.171041e-17;-1.081094e-18;2.220446e-16;2.062932e-17;5.349798;1.110223e-16;-1.110223e-16;0
-2.147489;26.053622;5.518559;0;0;0;0;0;-1.110223e-16;5.416602e-19;0;0;0;0;2.642611e-21;-1.110249e-16;5.551379e-17;45;0;7.401839e-17;7.401751e-17;0;0;1.08332e-18;-1.110223e-16;1.08332e-18;5.50179;-1.110223e-16;1.110223e-16;0
-0.534503;26.053622;5.625873;0;0;0;0;2.220446e-16;0;1.046785e-17;0;0;0;0;2.22537e-16;-4.92394e-19;1.115147e-16;45;0;1.486863e-16;1.485224e-16;2.220446e-16;2.09357e-17;0;0;-2.09357e-17;5.605043;2.220446e-16;-2.220446e-16;0
1.078483;26.053622;5.659538;0;0;0;0;0;0;-1.08187e-25;0;0;0;0;1.08187e-25;-1.08187e-25;1.08187e-25;45;0;1.442493e-25;1.249236e-25;0;-2.16374e-25;0;0;2.16374e-25;5.657783;0;0;0
2.691469;26.053622;5.678496;0;0;0;0;2.220446e-16;0;1.075759e-17;0;0;0;0;2.225646e-16;-5.199648e-19;1.115423e-16;45;0;1.48723e-16;1.4855e-16;2.220446e-16;2.151518e-17;0;0;-2.151518e-17;5.67903;2.220446e-16;-2.220446e-16;0
4.304455;26.053622;5.694916;0;0;0;0;0;2.220446e-16;1.358858e-19;0;0;0;0;2.220447e-16;-8.315867e-23;1.110224e-16;45;0;1.480298e-16;1.480298e-16;0;-3.739705e-23;2.718089e-19;2.220446e-16;2.718463e-19;5.668792;2.220446e-16;-2.220446e-16;0
5.917441;26.053622;5.630488;0;0;0;0;0;2.220446e-16;2.714793e-19;0;0;0;0;2.220449e-16;-3.319192e-22;1.110226e-16;45;0;1.480302e-16;1.480301e-16;0;0;5.429585e-19;2.220446e-16;5.429585e-19;5.618415;2.220446e-16;-2.220446e-16;0
7.530427;26.053622;5.528476;0;0;0;0;2.220446e-16;-1.110223e-16;2.149995e-17;0;0;0;0;2.234267e-16;-1.124044e-16;1.679156e-16;45;0;2.238874e-16;1.973923e-16;2.220446e-16;4.40841e-17;-1.084211e-18;-1.110223e-16;-4.516831e-17;5.515518;1.110223e-16;-1.110223e-16;0
9.143413;26.053622;5.386587;0;0;0;0;0;-1.110223e-16;-1.139163e-17;0;0;0;0;1.156804e-18;-1.121791e-16;5.666795e-17;45;0;7.555727e-17;7.517464e-17;0;-2.17016e-17;-1.08166e-18;-1.110223e-16;2.061994e-17;5.370775;-1.110223e-16;1.110223e-16;0
10.756399;26.053622;5.199175;0;0;0;0;-1.110223e-16;-1.110223e-16;-1.217446e-18;0;0;0;0;-1.098049e-16;-1.122398e-16;1.217446e-18;45;0;1.623261e-18;7.402822e-17;-1.110223e-16;-1.356537e-18;-1.078355e-18;-1.110223e-16;2.781817e-19;5.184107;-2.220446e-16;2.220446e-16;0
12.369385;26.053622;4.970297;0;0;0;0;0;-1.110223e-16;-2.278699e-17;0;0;0;0;4.494973e-18;-1.155173e-16;6.000612e-17;45;0;8.000816e-17;7.855272e-17;0;-4.342499e-17;-2.148995e-18;-1.110223e-16;4.1276e-17;4.955039;-1.110223e-16;1.110223e-16;0
13.982371;26.053622;4.698921;0;0;0;0;-1.110223e-16;2.220446e-16;-2.880923e-19;0;0;0;0;2.220448e-16;-1.110226e-16;1.665337e-16;45;0;2.220449e-16;1.958252e-16;-1.110223e-16;-2.713988e-18;2.137804e-18;2.220446e-16;4.851792e-18;4.678872;1.110223e-16;-1.110223e-16;0
15.595357;26.053622;4.368191;0;0;0;0;0;0;0;0;0;0;0;0;0;0;45;0;0;0;0;0;0;0;0;4.355416;0;0;0
17.208343;26.053622;3.998636;0;0;0;0;2.220446e-16;2.220446e-16;-7.383676e-18;0;0;0;0;2.294283e-16;2.146609e-16;7.383676e-18;45;0;9.844901e-18;1.482751e-16;2.220446e-16;-1.899282e-17;4.225471e-18;2.220446e-16;2.321829e-17;3.983645;4.440892e-16;-4.440892e-16;0
18.821329;26.053622;3.584756;0;0;0;0;0;0;0;0;0;0;0;0;0;0;45;0;0;0;0;0;0;0;0;3.567785;0;0;0
20.434315;26.053622;3.123622;0;0;0;0;2.220446e-16;0;-9.498261e-18;0;0;0;0;2.224502e-16;-4.055603e-19;1.114279e-16;45;0;1.485705e-16;1.484355e-16;2.220446e-16;-1.899652e-17;0;0;1.899652e-17;3.105664;2.220446e-16;-2.220446e-16;0
22.047301;26.053622;2.613917;0;0;0;0;0;0;3.122003e-17;0;0;0;0;3.122003e-17;-3.122003e-17;3.122003e-17;45;0;4.16267e-17;3.604978e-17;0;6.244006e-17;0;0;-6.244006e-17;2.595529;0;0;0
23.660287;26.053622;2.053988;0;0;0;0;0;0;0;0;0;0;0;0;0;0;45;0;0;0;0;0;0;0;0;2.035145;0;0;0
25.273273;26.053622;1.441312;0;0;0;0;-1.110223e-16;0;-1.086408e-17;0;0;0;0;1.053114e-18;-1.120754e-16;5.656426e-17;45;0;7.541902e-17;7.507045e-17;-1.110223e-16;-2.172816e-17;0;0;2.172816e-17;1.42116;-1.110223e-16;1.110223e-16;0
26.886259;26.053622;0.771591;0;0;0;0;-1.110223e-16;2.220446e-16;-3.060183e-17;0;0;0;0;2.248329e-16;-1.138106e-16;1.693218e-16;45;0;2.257624e-16;1.989875e-16;-1.110223e-16;-6.51965e-17;3.992846e-18;2.220446e-16;6.918934e-17;0.753421;1.110223e-16;-1.110223e-16;0
28.499246;26.053622;0.051651;0;0;0;0;0;0;-1.08682e-17;0;0;0;0;1.08682e-17;-1.08682e-17;1.08682e-17;45;0;1.449094e-17;1.254952e-17;0;-2.173641e-17;0;0;2.173641e-17;0.032929;0;0;0
30.112232;26.053622;-0.718881;0;0;0;0;0;0;0;0;0;0;0;0;0;0;45;0;0;0;0;0;0;0;0;-0.748257;0;0;0
31.725218;26.053622;-1.57311;0;0;0;0;-2.220446e-16;0;-4.749242e-18;0;0;0;0;1.015336e-19;-2.221461e-16;1.111238e-16;45;0;1.481651e-16;1.481313e-16;-2.220446e-16;-9.498484e-18;0;0;9.498484e-18;-1.57331;-2.220446e-16;2.220446e-16;0
-42.47214;24.440636;-13.746255;0;0;0;0;0;2.220446e-16;-4.259415e-18;0;0;0;0;2.221263e-16;-8.167705e-20;1.11104e-16;45;0;1.481386e-16;1.481114e-16;0;0;-8.51883e-18;2.220446e-16;-8.51883e-18;-13.747006;2.220446e-16;-2.220446e-16;0
-40.859154;24.440636;-12.065037;0;0;0;0;2.220446e-16;0;-2.722245e-17;0;0;0;0;2.253333e-16;-3.288735e-18;1.14311e-16;45;0;1.524147e-16;1.513304e-16;2.220446e-16;-5.444489e-17;0;0;5.444489e-17;-12.12372;2.220446e-16;-2.220446e-16;0
-39.246168;24.440636;-10.551645;0;0;0;0;-2.220446e-16;0;5.444278e-18;0;0;0;0;1.334073e-19;-2.22178e-16;1.111557e-16;45;0;1.482076e-16;1.481632e-16;-2.220446e-16;1.088856e-17;0;0;-1.088856e-17;-10.575274;-2.220446e-16;2.220446e-16;0
-37.633182;24.440636;-9.099859;0;0;0;0;0;0;0;0;0;0;0;0;0;0;45;0;0;0;0;0;0;0;0;-9.132646;0;0;0
-36.020196;24.440636;-7.737737;0;0;0;0;0;2.220446e-16;7.501043e-18;0;0;0;0;2.222977e-16;-2.531094e-19;1.112754e-16;45;0;1.483672e-16;1.482829e-16;0;2.177723e-17;-6.77514e-18;2.220446e-16;-2.855237e-17;-7.784515;2.220446e-16;-2.220446e-16;0
-34.40721;24.440636;-6.505766;0;0;0;0;2.220446e-16;2.220446e-16;4.673048e-18;0;0;0;0;2.267177e-16;2.173716e-16;4.673048e-18;45;0;6.230731e-18;1.48128e-16;2.220446e-16;1.63308e-17;-6.984701e-18;2.220446e-16;-2.33155e-17;-6.534406;4.440892e-16;-4.440892e-16;0
-32.794224;24.440636;-5.347946;0;0;0;0;0;2.220446e-16;-3.577427e-18;0;0;0;0;2.221022e-16;-5.762205e-20;1.110799e-16;45;0;1.481066e-16;1.480874e-16;0;0;-7.154854e-18;2.220446e-16;-7.154854e-18;-5.380728;2.220446e-16;-2.220446e-16;0
-31.181238;24.440636;-4.278805;0;0;0;0;0;-1.110223e-16;-9.052413e-18;0;0;0;0;7.332626e-19;-1.117556e-16;5.624442e-17;45;0;7.499255e-17;7.474933e-17;0;-2.176287e-17;3.658044e-18;-1.110223e-16;2.542091e-17;-4.304454;-1.110223e-16;1.110223e-16;0
-29.568251;24.440636;-3.276253;0;0;0;0;-1.110223e-16;-1.110223e-16;1.274451e-17;0;0;0;0;-9.827779e-17;-1.237668e-16;1.274451e-17;45;0;1.699269e-17;7.546366e-17;-1.110223e-16;2.175732e-17;3.731705e-18;-1.110223e-16;-1.802562e-17;-3.305269;-2.220446e-16;2.220446e-16;0
-27.955265;24.440636;-2.351594;0;0;0;0;-1.110223e-16;-1.110223e-16;4.619299e-18;0;0;0;0;-1.06403e-16;-1.156416e-16;4.619299e-18;45;0;6.159065e-18;7.420682e-17;-1.110223e-16;5.438284e-18;3.800313e-18;-1.110223e-16;-1.637971e-18;-2.373282;-2.220446e-16;2.220446e-16;0
-26.342279;24.440636;-1.486749;0;0;0;0;2.220446e-16;-1.110223e-16;-7.903523e-19;0;0;0;0;2.220465e-16;-1.110242e-16;1.665353e-16;45;0;2.220471e-16;1.958271e-16;2.220446e-16;-5.438262e-18;3.857557e-18;-1.110223e-16;9.295819e-18;-1.505152;1.110223e-16;-1.110223e-16;0
-24.729293;24.440636;-0.676368;0;0;0;0;2.220446e-16;-1.110223e-16;1.011398e-17;0;0;0;0;2.223514e-16;-1.113291e-16;1.668403e-16;45;0;2.224537e-16;1.961729e-16;2.220446e-16;1.631046e-17;3.917497e-18;-1.110223e-16;-1.239296e-17;-0.698431;1.110223e-16;-1.110223e-16;0
-23.116307;24.440636;0.067555;0;0;0;0;0;-1.110223e-16;3.459542e-17;0;0;0;0;9.897803e-18;-1.209201e-16;6.540896e-17;45;0;8.721193e-17;8.410702e-17;0;6.522313e-17;3.967712e-18;-1.110223e-16;-6.125542e-17;0.053261;-1.110223e-16;1.110223e-16;0
-21.503321;24.440636;0.771958;0;0;0;0;0;-1.110223e-16;-1.973602e-17;0;0;0;0;3.40403e-18;-1.144263e-16;5.891518e-17;45;0;7.855358e-17;7.744384e-17;0;-4.34741e-17;4.002057e-18;-1.110223e-16;4.747616e-17;0.757266;-1.110223e-16;1.110223e-16;0
-19.890335;24.440636;1.437954;0;0;0;0;-1.110223e-16;0;-2.17295e-17;0;0;0;0;4.101424e-18;-1.151237e-16;5.961258e-17;45;0;7.948343e-17;7.815218e-17;-1.110223e-16;-4.3459e-17;0;0;4.3459e-17;1.411574;-1.110223e-16;1.110223e-16;0
-18.277349;24.440636;2.026955;0;0;0;0;0;-1.110223e-16;2.055569e-18;0;0;0;0;3.804565e-20;-1.110604e-16;5.554919e-17;45;0;7.406559e-17;7.405291e-17;0;-4.225979e-22;4.11156e-18;-1.110223e-16;4.111983e-18;2.00471;-1.110223e-16;1.110223e-16;0
-16.664363;24.440636;2.544641;0;0;0;0;-1.110223e-16;-1.110223e-16;-6.06271e-18;0;0;0;0;-1.049596e-16;-1.17085e-16;6.06271e-18;45;0;8.083614e-18;7.434521e-17;-1.110223e-16;-1.628696e-17;4.16154e-18;-1.110223e-16;2.04485e-17;2.528332;-2.220446e-16;2.220446e-16;0
-15.051377;24.440636;3.004501;0;0;0;0;0;0;-1.085537e-17;0;0;0;0;1.085537e-17;-1.085537e-17;1.085537e-17;45;0;1.447383e-17;1.25347e-17;0;-2.171074e-17;0;0;2.171074e-17;3.000982;0;0;0
-13.438391;24.440636;3.446122;0;0;0;0;2.220446e-16;0;-1.356837e-18;0;0;0;0;2.220529e-16;-8.290846e-21;1.110306e-16;45;0;1.480408e-16;1.48038e-16;2.220446e-16;-2.713674e-18;0;0;2.713674e-18;3.43229;2.220446e-16;-2.220446e-16;0
-11.825405;24.440636;3.843298;0;0;0;0;-1.110223e-16;-1.110223e-16;1.061131e-18;0;0;0;0;-1.099612e-16;-1.120834e-16;1.061131e-18;45;0;1.414841e-18;7.402501e-17;-1.110223e-16;-5.590302e-22;2.12282e-18;-1.110223e-16;2.123379e-18;3.817355;-2.220446e-16;2.220446e-16;0
-10.212419;24.440636;4.163265;0;0;0;0;-1.110223e-16;-1.110223e-16;2.414314e-17;0;0;0;0;-8.687916e-17;-1.351654e-16;2.414314e-17;45;0;3.219086e-17;7.909102e-17;-1.110223e-16;4.615308e-17;2.133199e-18;-1.110223e-16;-4.401989e-17;4.161859;-2.220446e-16;2.220446e-16;0
-8.599433;24.440636;4.480908;0;0;0;0;0;-1.110223e-16;-9.793483e-18;0;0;0;0;8.572816e-19;-1.118796e-16;5.636843e-17;45;0;7.515791e-17;7.487379e-17;0;-2.171917e-17;2.132202e-18;-1.110223e-16;2.385137e-17;4.48402;-1.110223e-16;1.110223e-16;0
-6.986447;24.440636;4.808414;0;0;0;0;2.220446e-16;0;-1.357084e-18;0;0;0;0;2.220529e-16;-8.293867e-21;1.110306e-16;45;0;1.480408e-16;1.48038e-16;2.220446e-16;-2.714168e-18;0;0;2.714168e-18;4.785037;2.220446e-16;-2.220446e-16;0
-5.373461;24.440636;5.066453;0;0;0;0;0;0;-1.085957e-17;0;0;0;0;1.085957e-17;-1.085957e-17;1.085957e-17;45;0;1.447942e-17;1.253955e-17;0;-2.171914e-17;0;0;2.171914e-17;5.040751;0;0;0
-3.760475;24.440636;5.250409;0;0;0;0;2.220446e-16;2.220446e-16;-1.20779e-17;0;0;0;0;2.341225e-16;2.099667e-16;1.20779e-17;45;0;1.610387e-17;1.486853e-16;2.220446e-16;-2.307418e-17;-1.081628e-18;2.220446e-16;2.199255e-17;5.237159;4.440892e-16;-4.440892e-16;0
-2.147489;24.440636;5.396393;0;0;0;0;0;2.220446e-16;-1.138722e-17;0;0;0;0;2.22627e-16;-5.824482e-19;1.116048e-16;45;0;1.488063e-16;1.486126e-16;0;-2.168975e-17;-1.084684e-18;2.220446e-16;2.060507e-17;5.374627;2.220446e-16;-2.220446e-16;0
-0.534503;24.440636;5.467967;0;0;0;0;-1.110223e-16;0;1.6916e-19;0;0;0;0;2.577414e-22;-1.110226e-16;5.551141e-17;45;0;7.401521e-17;7.401513e-17;-1.110223e-16;3.383201e-19;0;0;-3.383201e-19;5.462741;-1.110223e-16;1.110223e-16;0
1.078483;24.440636;5.504689;0;0;0;0;0;-1.110223e-16;1.096175e-17;0;0;0;0;1.071954e-18;-1.120943e-16;5.65831e-17;45;0;7.544414e-17;7.508937e-17;0;2.165175e-17;2.717434e-19;-1.110223e-16;-2.138001e-17;5.516511;-1.110223e-16;1.110223e-16;0
2.691469;24.440636;5.562085;0;0;0;0;2.220446e-16;0;-1.694226e-19;0;0;0;0;2.220447e-16;-1.292713e-22;1.110224e-16;45;0;1.480299e-16;1.480299e-16;2.220446e-16;-3.388451e-19;0;0;3.388451e-19;5.554882;2.220446e-16;-2.220446e-16;0
4.304455;24.440636;5.597777;0;0;0;0;2.220446e-16;-1.110223e-16;-2.557577e-20;0;0;0;0;2.220446e-16;-1.110223e-16;1.665335e-16;45;0;2.220446e-16;1.958249e-16;2.220446e-16;8.476001e-20;-1.359115e-19;-1.110223e-16;-2.206715e-19;5.559251;1.110223e-16;-1.110223e-16;0
5.917441;24.440636;5.52425;0;0;0;0;-1.110223e-16;-1.110223e-16;-6.107449e-19;0;0;0;0;-1.104116e-16;-1.116331e-16;6.107449e-19;45;0;8.143265e-19;7.401823e-17;-1.110223e-16;-6.786466e-19;-5.428432e-19;-1.110223e-16;1.358034e-19;5.511782;-2.220446e-16;2.220446e-16;0
7.530427;24.440636;5.413529;0;0;0;0;0;-1.110223e-16;1.03136e-17;0;0;0;0;9.499696e-19;-1.119723e-16;5.646112e-17;45;0;7.52815e-17;7.496684e-17;0;2.171116e-17;-1.083966e-18;-1.110223e-16;-2.279512e-17;5.404379;-1.110223e-16;1.110223e-16;0
9.143413;24.440636;5.268945;0;0;0;0;-1.110223e-16;0;-6.782128e-19;0;0;0;0;4.14291e-21;-1.110264e-16;5.551529e-17;45;0;7.402039e-17;7.401901e-17;-1.110223e-16;-1.356426e-18;0;0;1.356426e-18;5.256854;-1.110223e-16;1.110223e-16;0
10.756399;24.440636;5.084103;0;0;0;0;-1.110223e-16;0;-1.152836e-17;0;0;0;0;1.184449e-18;-1.122067e-16;5.66956e-17;45;0;7.559413e-17;7.520242e-17;-1.110223e-16;-2.305672e-17;0;0;2.305672e-17;5.069375;-1.110223e-16;1.110223e-16;0
12.369385;24.440636;4.857963;0;0;0;0;2.220446e-16;0;-1.017269e-17;0;0;0;0;2.225097e-16;-4.650748e-19;1.114874e-16;45;0;1.486498e-16;1.484951e-16;2.220446e-16;-2.034538e-17;0;0;2.034538e-17;4.840673;2.220446e-16;-2.220446e-16;0
13.982371;24.440636;4.587732;0;0;0;0;0;0;-1.085293e-17;0;0;0;0;1.085293e-17;-1.085293e-17;1.085293e-17;45;0;1.447058e-17;1.253189e-17;0;-2.170587e-17;0;0;2.170587e-17;4.56451;0;0;0
15.595357;24.440636;4.25529;0;0;0;0;-1.110223e-16;0;-1.221101e-17;0;0;0;0;1.327188e-18;-1.123495e-16;5.683834e-17;45;0;7.578445e-17;7.534595e-17;-1.110223e-16;-2.442203e-17;0;0;2.442203e-17;4.239591;-1.110223e-16;1.110223e-16;0
17.208343;24.440636;3.879418;0;0;0;0;2.220446e-16;2.220446e-16;1.432109e-17;0;0;0;0;2.363657e-16;2.077235e-16;1.432109e-17;45;0;1.909479e-17;1.489505e-16;2.220446e-16;2.441918e-17;4.223005e-18;2.220446e-16;-2.019618e-17;3.865257;4.440892e-16;-4.440892e-16;0
18.821329;24.440636;3.460903;0;0;0;0;0;0;1.085155e-17;0;0;0;0;1.085155e-17;-1.085155e-17;1.085155e-17;45;0;1.446874e-17;1.25303e-17;0;2.170311e-17;0;0;-2.170311e-17;3.447335;0;0;0
20.434315;24.440636;2.999913;0;0;0;0;-1.110223e-16;-1.110223e-16;-1.429222e-17;0;0;0;0;-9.673008e-17;-1.253145e-16;1.429222e-17;45;0;1.905629e-17;7.583243e-17;-1.110223e-16;-2.441888e-17;-4.165561e-18;-1.110223e-16;2.025332e-17;2.98569;-2.220446e-16;2.220446e-16;0
22.047301;24.440636;2.495442;0;0;0;0;2.220446e-16;2.220446e-16;1.427817e-17;0;0;0;0;2.363228e-16;2.077664e-16;1.427817e-17;45;0;1.903756e-17;1.48945e-16;2.220446e-16;2.442662e-17;4.129719e-18;2.220446e-16;-2.02969e-17;2.477271;4.440892e-16;-4.440892e-16;0
23.660287;24.440636;1.937869;0;0;0;0;-1.110223e-16;0;8.144659e-18;0;0;0;0;5.943155e-19;-1.116166e-16;5.610546e-17;45;0;7.480729e-17;7.460997e-17;-1.110223e-16;1.628932e-17;0;0;-1.628932e-17;1.918103;-1.110223e-16;1.110223e-16;0
25.273273;24.440636;1.325147;0;0;0;0;0;0;1.086087e-17;0;0;0;0;1.086087e-17;-1.086087e-17;1.086087e-17;45;0;1.448116e-17;1.254105e-17;0;2.172174e-17;0;0;-2.172174e-17;1.303846;0;0;0
26.886259;24.440636;0.654618;0;0;0;0;0;0;1.086202e-17;0;0;0;0;1.086202e-17;-1.086202e-17;1.086202e-17;45;0;1.448269e-17;1.254238e-17;0;2.172403e-17;0;0;-2.172403e-17;0.635456;0;0;0
28.499246;24.440636;-0.065896;0;0;0;0;0;0;1.629527e-17;0;0;0;0;1.629527e-17;-1.629527e-17;1.629527e-17;45;0;2.172702e-17;1.881615e-17;0;3.259054e-17;0;0;-3.259054e-17;-0.08491;0;0;0
30.112232;24.440636;-0.835167;0;0;0;0;0;0;-1.086676e-17;0;0;0;0;1.086676e-17;-1.086676e-17;1.086676e-17;45;0;1.448901e-17;1.254785e-17;0;-2.173352e-17;0;0;2.173352e-17;-0.865473;0;0;0
31.725218;24.440636;-1.687439;0;0;0;0;-2.220446e-16;2.220446e-16;-1.340724e-17;0;0;0;0;2.22449e-16;-2.22449e-16;2.22449e-16;45;0;2.965987e-16;2.56862e-16;-2.220446e-16;-3.768925e-17;1.087476e-17;2.220446e-16;4.856401e-17;-1.689615;0;0;0
-42.47214;22.82765;-13.861031;0;0;0;0;0;2.220446e-16;-6.402947e-18;0;0;0;0;2.222291e-16;-1.844841e-19;1.112068e-16;45;0;1.482757e-16;1.482143e-16;0;0;-1.280589e-17;2.220446e-16;-1.280589e-17;-13.855749;2.220446e-16;-2.220446e-16;0
-40.859154;22.82765;-12.196148;0;0;0;0;-2.220446e-16;2.220446e-16;1.324644e-17;0;0;0;0;2.224394e-16;-2.224394e-16;2.224394e-16;45;0;2.965858e-16;2.568509e-16;-2.220446e-16;3.267211e-17;-6.179223e-18;2.220446e-16;-3.885133e-17;-12.236098;0;0;0
-39.246168;22.82765;-10.669816;0;0;0;0;0;-1.110223e-16;1.596602e-18;0;0;0;0;2.295584e-20;-1.110453e-16;5.553411e-17;45;0;7.404548e-17;7.403783e-17;0;0;3.193203e-18;-1.110223e-16;3.193203e-18;-10.688085;-1.110223e-16;1.110223e-16;0
-37.633182;22.82765;-9.210368;0;0;0;0;-2.220446e-16;0;-8.166899e-18;0;0;0;0;2.999769e-19;-2.223446e-16;1.113223e-16;45;0;1.484297e-16;1.483298e-16;-2.220446e-16;-1.63338e-17;0;0;1.63338e-17;-9.24345;-2.220446e-16;2.220446e-16;0
-36.020196;22.82765;-7.848087;0;0;0;0;2.220446e-16;-1.110223e-16;-1.463262e-17;0;0;0;0;2.226862e-16;-1.116639e-16;1.671751e-16;45;0;2.229001e-16;1.965525e-16;2.220446e-16;-3.265069e-17;3.385461e-18;-1.110223e-16;3.603615e-17;-7.893622;1.110223e-16;-1.110223e-16;0
-34.40721;22.82765;-6.613277;0;0;0;0;0;0;0;0;0;0;0;0;0;0;45;0;0;0;0;0;0;0;0;-6.642669;0;0;0
-32.794224;22.82765;-5.459795;0;0;0;0;0;2.220446e-16;-1.446004e-17;0;0;0;0;2.229823e-16;-9.377106e-19;1.1196e-16;45;0;1.4928e-16;1.489684e-16;0;-2.176373e-17;-7.156356e-18;2.220446e-16;1.460738e-17;-5.487759;2.220446e-16;-2.220446e-16;0
-31.181238;22.82765;-4.389956;0;0;0;0;0;-1.110223e-16;1.829417e-18;0;0;0;0;3.013681e-20;-1.110524e-16;5.554129e-17;45;0;7.405505e-17;7.404501e-17;0;0;3.658834e-18;-1.110223e-16;3.658834e-18;-4.41261;-1.110223e-16;1.110223e-16;0
-29.568251;22.82765;-3.3887;0;0;0;0;2.220446e-16;2.220446e-16;-1.460826e-17;0;0;0;0;2.366529e-16;2.074363e-16;1.460826e-17;45;0;1.947768e-17;1.489877e-16;2.220446e-16;-2.175196e-17;-7.464552e-18;2.220446e-16;1.428741e-17;-3.414129;4.440892e-16;-4.440892e-16;0
-27.955265;22.82765;-2.461848;0;0;0;0;2.220446e-16;-1.110223e-16;2.093032e-17;0;0;0;0;2.233547e-16;-1.123324e-16;1.678436e-16;45;0;2.237915e-16;1.973107e-16;2.220446e-16;3.806376e-17;3.796886e-18;-1.110223e-16;-3.426687e-17;-2.481325;1.110223e-16;-1.110223e-16;0
-26.342279;22.82765;-1.589591;0;0;0;0;2.220446e-16;-1.110223e-16;1.280403e-17;0;0;0;0;2.225361e-16;-1.115138e-16;1.670249e-16;45;0;2.226999e-16;1.963823e-16;2.220446e-16;2.17521e-17;3.855956e-18;-1.110223e-16;-1.789614e-17;-1.61229;1.110223e-16;-1.110223e-16;0
-24.729293;22.82765;-0.782277;0;0;0;0;0;0;-1.087338e-17;0;0;0;0;1.087338e-17;-1.087338e-17;1.087338e-17;45;0;1.449784e-17;1.255549e-17;0;-2.174675e-17;0;0;2.174675e-17;-0.805995;0;0;0
-23.116307;22.82765;-0.04466;0;0;0;0;0;0;1.086944e-17;0;0;0;0;1.086944e-17;-1.086944e-17;1.086944e-17;45;0;1.449258e-17;1.255095e-17;0;2.173888e-17;0;0;-2.173888e-17;-0.056233;0;0;0
-21.503321;22.82765;0.658124;0;0;0;0;0;0;0;0;0;0;0;0;0;0;45;0;0;0;0;0;0;0;0;0.6459;0;0;0
-19.890335;22.82765;1.321782;0;0;0;0;0;-1.110223e-16;1.28912e-17;0;0;0;0;1.477188e-18;-1.124995e-16;5.698834e-17;45;0;7.598445e-17;7.549687e-17;0;2.17312e-17;4.051189e-18;-1.110223e-16;-1.768001e-17;1.299717;-1.110223e-16;1.110223e-16;0
-18.277349;22.82765;1.913899;0;0;0;0;2.220446e-16;0;-1.358219e-17;0;0;0;0;2.228723e-16;-8.277195e-19;1.1185e-16;45;0;1.491334e-16;1.488582e-16;2.220446e-16;-2.716437e-17;0;0;2.716437e-17;1.893116;2.220446e-16;-2.220446e-16;0
-16.664363;22.82765;2.435377;0;0;0;0;0;0;0;0;0;0;0;0;0;0;45;0;0;0;0;0;0;0;0;2.416501;0;0;0
-15.051377;22.82765;2.889839;0;0;0;0;2.220446e-16;0;9.504892e-18;0;0;0;0;2.224507e-16;-4.061257e-19;1.114284e-16;45;0;1.485712e-16;1.484361e-16;2.220446e-16;1.900978e-17;0;0;-1.900978e-17;2.888189;2.220446e-16;-2.220446e-16;0
-13.438391;22.82765;3.329505;0;0;0;0;-1.110223e-16;0;1.221672e-17;0;0;0;0;1.328414e-18;-1.123507e-16;5.683956e-17;45;0;7.578609e-17;7.534719e-17;-1.110223e-16;2.443344e-17;0;0;-2.443344e-17;3.318837;-1.110223e-16;1.110223e-16;0
-11.825405;22.82765;3.730969;0;0;0;0;-1.110223e-16;0;1.356961e-18;0;0;0;0;1.658286e-20;-1.110389e-16;5.552773e-17;45;0;7.403698e-17;7.403145e-17;-1.110223e-16;2.713921e-18;0;0;-2.713921e-18;3.705692;-1.110223e-16;1.110223e-16;0
-10.212419;22.82765;4.054178;0;0;0;0;2.220446e-16;-1.110223e-16;1.066319e-18;0;0;0;0;2.22048e-16;-1.110257e-16;1.665369e-16;45;0;2.220492e-16;1.958288e-16;2.220446e-16;0;2.132639e-18;-1.110223e-16;2.132639e-18;4.053;1.110223e-16;-1.110223e-16;0
-8.599433;22.82765;4.372154;0;0;0;0;0;-1.110223e-16;1.066095e-18;0;0;0;0;1.023626e-20;-1.110325e-16;5.552139e-17;45;0;7.402852e-17;7.402511e-17;0;0;2.132189e-18;-1.110223e-16;2.132189e-18;4.376505;-1.110223e-16;1.110223e-16;0
-6.986447;22.82765;4.698833;0;0;0;0;0;0;1.086137e-17;0;0;0;0;1.086137e-17;-1.086137e-17;1.086137e-17;45;0;1.448183e-17;1.254163e-17;0;2.172275e-17;0;0;-2.172275e-17;4.678558;0;0;0
-5.373461;22.82765;4.958123;0;0;0;0;0;0;2.172213e-17;0;0;0;0;2.172213e-17;-2.172213e-17;2.172213e-17;45;0;2.896285e-17;2.508256e-17;0;4.344427e-17;0;0;-4.344427e-17;4.935943;0;0;0
-3.760475;22.82765;5.144854;0;0;0;0;0;-1.110223e-16;-1.031879e-17;0;0;0;0;9.509186e-19;-1.119732e-16;5.646207e-17;45;0;7.528276e-17;7.49678e-17;0;-2.171951e-17;1.081936e-18;-1.110223e-16;2.280145e-17;5.130167;-1.110223e-16;1.110223e-16;0
-2.147489;22.82765;5.27926;0;0;0;0;2.220446e-16;-1.110223e-16;-6.79064e-20;0;0;0;0;2.220446e-16;-1.110223e-16;1.665335e-16;45;0;2.220446e-16;1.95825e-16;2.220446e-16;-6.784465e-19;5.426336e-19;-1.110223e-16;1.22108e-18;5.259381;1.110223e-16;-1.110223e-16;0
-0.534503;22.82765;5.339868;0;0;0;0;0;-1.110223e-16;1.358612e-19;0;0;0;0;1.662571e-22;-1.110225e-16;5.551132e-17;45;0;7.401509e-17;7.401504e-17;0;0;2.717225e-19;-1.110223e-16;2.717225e-19;5.336962;-1.110223e-16;1.110223e-16;0
1.078483;22.82765;5.372523;0;0;0;0;0;-1.110223e-16;1.09793e-17;0;0;0;0;1.075358e-18;-1.120977e-16;5.658651e-17;45;0;7.544868e-17;7.509279e-17;0;2.168688e-17;2.717298e-19;-1.110223e-16;-2.141515e-17;5.387869;-1.110223e-16;1.110223e-16;0
2.691469;22.82765;5.437561;0;0;0;0;-1.110223e-16;2.220446e-16;2.158076e-17;0;0;0;0;2.234371e-16;-1.124148e-16;1.679259e-16;45;0;2.239012e-16;1.974041e-16;-1.110223e-16;4.37049e-17;-5.433847e-19;2.220446e-16;-4.424829e-17;5.432133;1.110223e-16;-1.110223e-16;0
4.304455;22.82765;5.486354;0;0;0;0;2.220446e-16;0;4.233734e-20;0;0;0;0;2.220446e-16;-8.072478e-24;1.110223e-16;45;0;1.480297e-16;1.480297e-16;2.220446e-16;8.467468e-20;0;0;-8.467468e-20;5.445066;2.220446e-16;-2.220446e-16;0
5.917441;22.82765;5.421336;0;0;0;0;0;0;1.085471e-17;0;0;0;0;1.085471e-17;-1.085471e-17;1.085471e-17;45;0;1.447295e-17;1.253394e-17;0;2.170943e-17;0;0;-2.170943e-17;5.402269;0;0;0
7.530427;22.82765;5.308908;0;0;0;0;0;2.220446e-16;8.811959e-19;0;0;0;0;2.220481e-16;-3.497018e-21;1.110258e-16;45;0;1.480344e-16;1.480332e-16;0;6.786025e-19;1.083789e-18;2.220446e-16;4.051869e-19;5.294503;2.220446e-16;-2.220446e-16;0
9.143413;22.82765;5.15689;0;0;0;0;0;0;-1.085458e-17;0;0;0;0;1.085458e-17;-1.085458e-17;1.085458e-17;45;0;1.447278e-17;1.253379e-17;0;-2.170916e-17;0;0;2.170916e-17;5.143785;0;0;0
10.756399;22.82765;4.965075;0;0;0;0;-1.110223e-16;0;-2.237637e-17;0;0;0;0;4.340246e-18;-1.153626e-16;5.98514e-17;45;0;7.980187e-17;7.839518e-17;-1.110223e-16;-4.475274e-17;0;0;4.475274e-17;4.952562;-1.110223e-16;1.110223e-16;0
12.369385;22.82765;4.735344;0;0;0;0;0;2.220446e-16;1.124245e-17;0;0;0;0;2.226124e-16;-5.677701e-19;1.115901e-16;45;0;1.487868e-16;1.485979e-16;0;2.033586e-17;2.149032e-18;2.220446e-16;-1.818683e-17;4.72204;2.220446e-16;-2.220446e-16;0
13.982371;22.82765;4.467446;0;0;0;0;0;2.220446e-16;1.069058e-18;0;0;0;0;2.220497e-16;-5.146977e-21;1.110275e-16;45;0;1.480366e-16;1.480349e-16;0;-2.481904e-22;2.138364e-18;2.220446e-16;2.138612e-18;4.44658;2.220446e-16;-2.220446e-16;0
15.595357;22.82765;4.139403;0;0;0;0;2.220446e-16;0;-9.496432e-18;0;0;0;0;2.2245e-16;-4.054045e-19;1.114277e-16;45;0;1.485703e-16;1.484353e-16;2.220446e-16;-1.899286e-17;0;0;1.899286e-17;4.122877;2.220446e-16;-2.220446e-16;0
17.208343;22.82765;3.761279;0;0;0;0;0;0;0;0;0;0;0;0;0;0;45;0;0;0;0;0;0;0;0;3.748586;0;0;0
18.821329;22.82765;3.339439;0;0;0;0;0;2.220446e-16;-1.961627e-17;0;0;0;0;2.237643e-16;-1.719659e-18;1.12742e-16;45;0;1.503226e-16;1.497527e-16;0;-4.342714e-17;4.194597e-18;2.220446e-16;4.762174e-17;3.32937;2.220446e-16;-2.220446e-16;0
20.434315;22.82765;2.878048;0;0;0;0;0;0;-1.357147e-18;0;0;0;0;1.357147e-18;-1.357147e-18;1.357147e-18;45;0;1.809529e-18;1.567098e-18;0;-2.714293e-18;0;0;2.714293e-18;2.867;0;0;0
22.047301;22.82765;2.375168;0;0;0;0;-1.110223e-16;0;-1.357007e-18;0;0;0;0;1.658398e-20;-1.110389e-16;5.552773e-17;45;0;7.403698e-17;7.403145e-17;-1.110223e-16;-2.714013e-18;0;0;2.714013e-18;2.358294;-1.110223e-16;1.110223e-16;0
23.660287;22.82765;1.817469;0;0;0;0;-1.110223e-16;0;1.900095e-17;0;0;0;0;3.161876e-18;-1.141842e-16;5.867303e-17;45;0;7.82307e-17;7.719833e-17;-1.110223e-16;3.80019e-17;0;0;-3.80019e-17;1.798419;-1.110223e-16;1.110223e-16;0
25.273273;22.82765;1.202612;0;0;0;0;0;0;0;0;0;0;0;0;0;0;45;0;0;0;0;0;0;0;0;1.182873;0;0;0
26.886259;22.82765;0.530005;0;0;0;0;0;0;0;0;0;0;0;0;0;0;45;0;0;0;0;0;0;0;0;0.513235;0;0;0
28.499246;22.82765;-0.191932;0;0;0;0;-1.110223e-16;0;3.258199e-17;0;0;0;0;8.855562e-18;-1.198779e-16;6.436672e-17;45;0;8.582228e-17;8.3028e-17;-1.110223e-16;6.516397e-17;0;0;-6.516397e-17;-0.207411;-1.110223e-16;1.110223e-16;0
30.112232;22.82765;-0.960185;0;0;0;0;-1.110223e-16;0;2.71644e-18;0;0;0;0;6.642482e-20;-1.110887e-16;5.557758e-17;45;0;7.410343e-17;7.40813e-17;-1.110223e-16;5.432881e-18;0;0;-5.432881e-18;-0.98688;-1.110223e-16;1.110223e-16;0
31.725218;22.82765;-1.808297;0;0;0;0;0;2.220446e-16;1.94804e-17;0;0;0;0;2.237407e-16;-1.696097e-18;1.127184e-16;45;0;1.502912e-16;1.49729e-16;0;2.808055e-17;1.088025e-17;2.220446e-16;-1.72003e-17;-1.808709;2.220446e-16;-2.220446e-16;0
-42.47214;21.214664;-13.959961;0;0;0;0;0;-1.110223e-16;1.621799e-17;0;0;0;0;2.320596e-18;-1.133429e-16;5.783175e-17;45;0;7.7109e-17;7.634722e-17;0;2.81551e-17;4.280878e-18;-1.110223e-16;-2.387422e-17;-13.956814;-1.110223e-16;1.110223e-16;0
-40.859154;21.214664;-12.302096;0;0;0;0;0;0;-4.358201e-17;0;0;0;0;4.358201e-17;-4.358201e-17;4.358201e-17;45;0;5.810935e-17;5.032417e-17;0;-8.716402e-17;0;0;8.716402e-17;-12.339684;0;0;0
-39.246168;21.214664;-10.772893;0;0;0;0;-2.220446e-16;0;2.723138e-18;0;0;0;0;3.339133e-20;-2.22078e-16;1.110557e-16;45;0;1.480743e-16;1.480631e-16;-2.220446e-16;5.446275e-18;0;0;-5.446275e-18;-10.794449;-2.220446e-16;2.220446e-16;0
-37.633182;21.214664;-9.324901;0;0;0;0;0;0;-2.177857e-17;0;0;0;0;2.177857e-17;-2.177857e-17;2.177857e-17;45;0;2.90381e-17;2.514773e-17;0;-4.355714e-17;0;0;4.355714e-17;-9.352935;0;0;0
-36.020196;21.214664;-7.975743;0;0;0;0;0;-1.110223e-16;-9.191112e-18;0;0;0;0;7.557524e-19;-1.117781e-16;5.62669e-17;45;0;7.502254e-17;7.477189e-17;0;-2.176855e-17;3.386327e-18;-1.110223e-16;2.515488e-17;-8.006459;-1.110223e-16;1.110223e-16;0
-34.40721;21.214664;-6.726859;0;0;0;0;2.220446e-16;0;-2.448638e-17;0;0;0;0;2.247128e-16;-2.668218e-18;1.136905e-16;45;0;1.515874e-16;1.507058e-16;2.220446e-16;-4.897276e-17;0;0;4.897276e-17;-6.755248;2.220446e-16;-2.220446e-16;0
-32.794224;21.214664;-5.568812;0;0;0;0;0;0;1.088285e-17;0;0;0;0;1.088285e-17;-1.088285e-17;1.088285e-17;45;0;1.451046e-17;1.256643e-17;0;2.176569e-17;0;0;-2.176569e-17;-5.596925;0;0;0
-31.181238;21.214664;-4.49862;0;0;0;0;0;0;0;0;0;0;0;0;0;0;45;0;0;0;0;0;0;0;0;-4.521502;0;0;0
-29.568251;21.214664;-3.504602;0;0;0;0;0;2.220446e-16;1.802178e-17;0;0;0;0;2.234978e-16;-1.453189e-18;1.124755e-16;45;0;1.499673e-16;1.494853e-16;0;4.351269e-17;-7.469131e-18;2.220446e-16;-5.098183e-17;-3.523604;2.220446e-16;-2.220446e-16;0
-27.955265;21.214664;-2.576779;0;0;0;0;0;-1.110223e-16;1.896808e-18;0;0;0;0;3.239739e-20;-1.110547e-16;5.554355e-17;45;0;7.405806e-17;7.404727e-17;0;0;3.793617e-18;-1.110223e-16;3.793617e-18;-2.590243;-1.110223e-16;1.110223e-16;0
-26.342279;21.214664;-1.695813;0;0;0;0;-1.110223e-16;0;-1.087556e-17;0;0;0;0;1.05532e-18;-1.120776e-16;5.656647e-17;45;0;7.542196e-17;7.507266e-17;-1.110223e-16;-2.175111e-17;0;0;2.175111e-17;-1.719942;-1.110223e-16;1.110223e-16;0
-24.729293;21.214664;-0.889593;0;0;0;0;-1.110223e-16;0;-8.155194e-18;0;0;0;0;5.958455e-19;-1.116182e-16;5.6107e-17;45;0;7.480933e-17;7.461151e-17;-1.110223e-16;-1.631039e-17;0;0;1.631039e-17;-0.913488;-1.110223e-16;1.110223e-16;0
-23.116307;21.214664;-0.156455;0;0;0;0;0;0;1.087113e-17;0;0;0;0;1.087113e-17;-1.087113e-17;1.087113e-17;45;0;1.449484e-17;1.25529e-17;0;2.174226e-17;0;0;-2.174226e-17;-0.165177;0;0;0
-21.503321;21.214664;0.545621;0;0;0;0;-1.110223e-16;0;-8.152848e-18;0;0;0;0;5.955047e-19;-1.116178e-16;5.610666e-17;45;0;7.480888e-17;7.461117e-17;-1.110223e-16;-1.63057e-17;0;0;1.63057e-17;0.536133;-1.110223e-16;1.110223e-16;0
-19.890335;21.214664;1.211217;0;0;0;0;0;0;-1.087001e-17;0;0;0;0;1.087001e-17;-1.087001e-17;1.087001e-17;45;0;1.449335e-17;1.255161e-17;0;-2.174003e-17;0;0;2.174003e-17;1.191109;0;0;0
-18.277349;21.214664;1.809949;0;0;0;0;0;2.220446e-16;-2.379307e-17;0;0;0;0;2.245655e-16;-2.520913e-18;1.135432e-16;45;0;1.51391e-16;1.505577e-16;0;-4.347928e-17;-4.106857e-18;2.220446e-16;3.937242e-17;1.786829;2.220446e-16;-2.220446e-16;0
-16.664363;21.214664;2.336271;0;0;0;0;0;0;-1.086992e-17;0;0;0;0;1.086992e-17;-1.086992e-17;1.086992e-17;45;0;1.449323e-17;1.25515e-17;0;-2.173984e-17;0;0;2.173984e-17;2.311956;0;0;0
-15.051377;21.214664;2.787079;0;0;0;0;-1.110223e-16;2.220446e-16;-1.160703e-17;0;0;0;0;2.224486e-16;-1.114263e-16;1.669375e-16;45;0;2.225833e-16;1.962831e-16;-1.110223e-16;-1.902087e-17;-4.193188e-18;2.220446e-16;1.482768e-17;2.783291;1.110223e-16;-1.110223e-16;0
-13.438391;21.214664;3.220366;0;0;0;0;0;2.220446e-16;8.759902e-18;0;0;0;0;2.223897e-16;-3.450515e-19;1.113673e-16;45;0;1.484898e-16;1.483749e-16;0;2.173142e-17;-4.211611e-18;2.220446e-16;-2.594303e-17;3.211258;2.220446e-16;-2.220446e-16;0
-11.825405;21.214664;3.617856;0;0;0;0;0;-1.110223e-16;1.192176e-17;0;0;0;0;1.265747e-18;-1.12288e-16;5.67769e-17;45;0;7.570253e-17;7.528416e-17;0;2.172159e-17;2.121926e-18;-1.110223e-16;-1.959966e-17;3.596561;-1.110223e-16;1.110223e-16;0
-10.212419;21.214664;3.945673;0;0;0;0;0;2.220446e-16;-1.192595e-17;0;0;0;0;2.226833e-16;-6.38702e-19;1.11661e-16;45;0;1.488813e-16;1.486689e-16;0;-2.172008e-17;-2.131821e-18;2.220446e-16;1.958826e-17;3.944327;2.220446e-16;-2.220446e-16;0
-8.599433;21.214664;4.268699;0;0;0;0;0;0;0;0;0;0;0;0;0;0;45;0;0;0;0;0;0;0;0;4.269436;0;0;0
-6.986447;21.214664;4.596419;0;0;0;0;0;2.220446e-16;-1.748554e-18;0;0;0;0;2.220584e-16;-1.376863e-20;1.110361e-16;45;0;1.480481e-16;1.480435e-16;0;-1.357873e-18;-2.139234e-18;2.220446e-16;-7.813616e-19;4.573166;2.220446e-16;-2.220446e-16;0
-5.373461;21.214664;4.85702;0;0;0;0;0;0;-1.292141e-22;0;0;0;0;1.292141e-22;-1.292141e-22;1.292141e-22;45;0;1.722854e-22;1.492036e-22;0;-2.584282e-22;0;0;2.584282e-22;4.83195;0;0;0
-3.760475;21.214664;5.042964;0;0;0;0;-1.110223e-16;-1.110223e-16;1.219998e-18;0;0;0;0;-1.098023e-16;-1.122423e-16;1.219998e-18;45;0;1.626665e-18;7.402827e-17;-1.110223e-16;1.358003e-18;1.081993e-18;-1.110223e-16;-2.760099e-19;5.026454;-2.220446e-16;2.220446e-16;0
-2.147489;21.214664;5.176026;0;0;0;0;0;-1.110223e-16;-1.059323e-17;0;0;0;0;1.001718e-18;-1.12024e-16;5.651287e-17;45;0;7.53505e-17;7.501882e-17;0;-2.172913e-17;5.426763e-19;-1.110223e-16;2.227181e-17;5.154537;-1.110223e-16;1.110223e-16;0
-0.534503;21.214664;5.236687;0;0;0;0;0;2.220446e-16;-1.35874e-19;0;0;0;0;2.220447e-16;-8.314431e-23;1.110224e-16;45;0;1.480298e-16;1.480298e-16;0;-5.449595e-24;-2.717426e-19;2.220446e-16;-2.717372e-19;5.22841;2.220446e-16;-2.220446e-16;0
1.078483;21.214664;5.259246;0;0;0;0;2.220446e-16;0;-1.094408e-17;0;0;0;0;2.225827e-16;-5.381051e-19;1.115604e-16;45;0;1.487472e-16;1.485682e-16;2.220446e-16;-2.188816e-17;0;0;2.188816e-17;5.274631;2.220446e-16;-2.220446e-16;0
2.691469;21.214664;5.310198;0;0;0;0;0;-1.110223e-16;1.09858e-17;0;0;0;0;1.076619e-18;-1.120989e-16;5.658777e-17;45;0;7.545036e-17;7.509406e-17;0;2.169989e-17;2.717156e-19;-1.110223e-16;-2.142817e-17;5.314924;-1.110223e-16;1.110223e-16;0
4.304455;21.214664;5.358762;0;0;0;0;0;2.220446e-16;2.170685e-17;0;0;0;0;2.241467e-16;-2.102137e-18;1.131244e-16;45;0;1.508326e-16;1.501368e-16;0;4.337971e-17;3.39798e-20;2.220446e-16;-4.334573e-17;5.328153;2.220446e-16;-2.220446e-16;0
5.917441;21.214664;5.307269;0;0;0;0;2.220446e-16;0;-1.050947e-17;0;0;0;0;2.225409e-16;-4.963081e-19;1.115186e-16;45;0;1.486915e-16;1.485263e-16;2.220446e-16;-2.101893e-17;0;0;2.101893e-17;5.288791;2.220446e-16;-2.220446e-16;0
7.530427;21.214664;5.202233;0;0;0;0;0;-1.110223e-16;-5.419092e-19;0;0;0;0;2.645042e-21;-1.110249e-16;5.55138e-17;45;0;7.40184e-17;7.401751e-17;0;0;-1.083818e-18;-1.110223e-16;-1.083818e-18;5.183253;-1.110223e-16;1.110223e-16;0
9.143413;21.214664;5.047171;0;0;0;0;2.220446e-16;0;-1.017433e-17;0;0;0;0;2.225098e-16;-4.652244e-19;1.114875e-16;45;0;1.4865e-16;1.484952e-16;2.220446e-16;-2.034866e-17;0;0;2.034866e-17;5.030448;2.220446e-16;-2.220446e-16;0
10.756399;21.214664;4.847213;0;0;0;0;0;2.220446e-16;1.077567e-18;0;0;0;0;2.220498e-16;-5.229232e-21;1.110275e-16;45;0;1.480367e-16;1.48035e-16;0;0;2.155133e-18;2.220446e-16;2.155133e-18;4.834568;2.220446e-16;-2.220446e-16;0
12.369385;21.214664;4.610355;0;0;0;0;0;-1.110223e-16;-1.074289e-18;0;0;0;0;1.039421e-20;-1.110327e-16;5.552155e-17;45;0;7.402873e-17;7.402526e-17;0;0;-2.148578e-18;-1.110223e-16;-2.148578e-18;4.600897;-1.110223e-16;1.110223e-16;0
13.982371;21.214664;4.343132;0;0;0;0;0;2.220446e-16;-9.778114e-18;0;0;0;0;2.224744e-16;-4.297642e-19;1.114521e-16;45;0;1.486028e-16;1.484597e-16;0;-2.169549e-17;2.139262e-18;2.220446e-16;2.383475e-17;4.326311;2.220446e-16;-2.220446e-16;0
15.595357;21.214664;4.022554;0;0;0;0;-1.110223e-16;-1.110223e-16;-1.32736e-17;0;0;0;0;-9.774871e-17;-1.242959e-16;1.32736e-17;45;0;1.769813e-17;7.558518e-17;-1.110223e-16;-2.442126e-17;-2.125928e-18;-1.110223e-16;2.229533e-17;4.006141;-2.220446e-16;2.220446e-16;0
17.208343;21.214664;3.649643;0;0;0;0;0;2.220446e-16;1.297157e-17;0;0;0;0;2.227998e-16;-7.552148e-19;1.117775e-16;45;0;1.490367e-16;1.487856e-16;0;2.171979e-17;4.223356e-18;2.220446e-16;-1.749643e-17;3.635245;2.220446e-16;-2.220446e-16;0
18.821329;21.214664;3.229344;0;0;0;0;-1.110223e-16;0;-1.222113e-17;0;0;0;0;1.329361e-18;-1.123517e-16;5.684051e-17;45;0;7.578735e-17;7.534814e-17;-1.110223e-16;-2.444225e-17;0;0;2.444225e-17;3.217124;-1.110223e-16;1.110223e-16;0
20.434315;21.214664;2.766343;0;0;0;0;0;2.220446e-16;2.082158e-18;0;0;0;0;2.220641e-16;-1.952311e-20;1.110418e-16;45;0;1.480558e-16;1.480493e-16;0;1.205998e-22;4.164195e-18;2.220446e-16;4.164075e-18;2.753734;2.220446e-16;-2.220446e-16;0
22.047301;21.214664;2.258398;0;0;0;0;2.220446e-16;2.220446e-16;3.421332e-18;0;0;0;0;2.254659e-16;2.186233e-16;3.421332e-18;45;0;4.561776e-18;1.480824e-16;2.220446e-16;2.715497e-18;4.127167e-18;2.220446e-16;1.41167e-18;2.242751;4.440892e-16;-4.440892e-16;0
23.660287;21.214664;1.695995;0;0;0;0;2.220446e-16;2.220446e-16;-6.10387e-18;0;0;0;0;2.281485e-16;2.159407e-16;6.10387e-18;45;0;8.138494e-18;1.481974e-16;2.220446e-16;-1.629124e-17;4.083495e-18;2.220446e-16;2.037473e-17;1.680071;4.440892e-16;-4.440892e-16;0
25.273273;21.214664;1.077673;0;0;0;0;-1.110223e-16;2.220446e-16;-1.155761e-17;0;0;0;0;2.224452e-16;-1.114229e-16;1.66934e-16;45;0;2.225787e-16;1.962792e-16;-1.110223e-16;-2.715208e-17;4.036855e-18;2.220446e-16;3.118894e-17;1.062566;1.110223e-16;-1.110223e-16;0
26.886259;21.214664;0.404469;0;0;0;0;0;0;2.172528e-17;0;0;0;0;2.172528e-17;-2.172528e-17;2.172528e-17;45;0;2.896703e-17;2.508619e-17;0;4.345055e-17;0;0;-4.345055e-17;0.391802;0;0;0
28.499246;21.214664;-0.317584;0;0;0;0;0;-1.110223e-16;-1.283776e-17;0;0;0;0;1.465125e-18;-1.124874e-16;5.697627e-17;45;0;7.596837e-17;7.548473e-17;0;-2.172868e-17;-3.946843e-18;-1.110223e-16;1.778184e-17;-0.329273;-1.110223e-16;1.110223e-16;0
30.112232;21.214664;-1.085032;0;0;0;0;-1.110223e-16;0;0;0;0;0;0;0;-1.110223e-16;5.551115e-17;45;0;7.401487e-17;7.401487e-17;-1.110223e-16;0;0;0;0;-1.108332;-1.110223e-16;1.110223e-16;0
31.725218;21.214664;-1.930391;0;0;0;0;2.220446e-16;2.220446e-16;3.613155e-17;0;0;0;0;2.581762e-16;1.859131e-16;3.613155e-17;45;0;4.817541e-17;1.537968e-16;2.220446e-16;3.3187e-17;3.907611e-17;2.220446e-16;5.889106e-18;-1.932673;4.440892e-16;-4.440892e-16;0
-42.47214;19.601678;-14.049451;0;0;0;0;2.220446e-16;-1.110223e-16;3.0597e-17;0;0;0;0;2.248321e-16;-1.138098e-16;1.693209e-16;45;0;2.257612e-16;1.989865e-16;2.220446e-16;0;6.119399e-17;-1.110223e-16;6.119399e-17;-14.083103;1.110223e-16;-1.110223e-16;0
-40.859154;19.601678;-12.389363;0;0;0;0;-2.220446e-16;0;5.446566e-18;0;0;0;0;1.335193e-19;-2.221781e-16;1.111558e-16;45;0;1.482078e-16;1.481633e-16;-2.220446e-16;1.089313e-17;0;0;-1.089313e-17;-12.438094;-2.220446e-16;2.220446e-16;0
-39.246168;19.601678;-10.856394;0;0;0;0;0;-1.110223e-16;-9.295878e-18;0;0;0;0;7.729607e-19;-1.117953e-16;5.628412e-17;45;0;7.504548e-17;7.478916e-17;0;-2.178945e-17;3.197691e-18;-1.110223e-16;2.498714e-17;-10.893226;-1.110223e-16;1.110223e-16;0
-37.633182;19.601678;-9.428059;0;0;0;0;0;-1.110223e-16;-9.244398e-18;0;0;0;0;7.644811e-19;-1.117868e-16;5.627563e-17;45;0;7.503418e-17;7.478065e-17;0;-2.178528e-17;3.296488e-18;-1.110223e-16;2.508177e-17;-9.455317;-1.110223e-16;1.110223e-16;0
-36.020196;19.601678;-8.090158;0;0;0;0;2.220446e-16;0;-1.361031e-17;0;0;0;0;2.228758e-16;-8.311387e-19;1.118534e-16;45;0;1.491379e-16;1.488616e-16;2.220446e-16;-2.722063e-17;0;0;2.722063e-17;-8.114745;2.220446e-16;-2.220446e-16;0
-34.40721;19.601678;-6.840672;0;0;0;0;0;-1.110223e-16;1.262585e-17;0;0;0;0;1.417752e-18;-1.124401e-16;5.692891e-17;45;0;7.59052e-17;7.543706e-17;0;2.177034e-17;3.481366e-18;-1.110223e-16;-1.828897e-17;-6.865288;-1.110223e-16;1.110223e-16;0
-32.794224;19.601678;-5.673826;0;0;0;0;0;2.220446e-16;7.31254e-18;0;0;0;0;2.222852e-16;-2.405614e-19;1.112629e-16;45;0;1.483505e-16;1.482704e-16;0;2.176796e-17;-7.14288e-18;2.220446e-16;-2.891084e-17;-5.704386;2.220446e-16;-2.220446e-16;0
-31.181238;19.601678;-4.600508;0;0;0;0;0;-1.110223e-16;-1.993551e-17;0;0;0;0;3.471156e-18;-1.144935e-16;5.898231e-17;45;0;7.864308e-17;7.751194e-17;0;-4.353191e-17;3.660883e-18;-1.110223e-16;4.719279e-17;-4.62725;-1.110223e-16;1.110223e-16;0
-29.568251;19.601678;-3.6087;0;0;0;0;0;0;0;0;0;0;0;0;0;0;45;0;0;0;0;0;0;0;0;-3.629466;0;0;0
-27.955265;19.601678;-2.682723;0;0;0;0;0;-1.110223e-16;2.36559e-17;0;0;0;0;4.830292e-18;-1.158526e-16;6.034144e-17;45;0;8.045526e-17;7.889446e-17;0;4.351725e-17;3.794562e-18;-1.110223e-16;-3.972269e-17;-2.696934;-1.110223e-16;1.110223e-16;0
-26.342279;19.601678;-1.803431;0;0;0;0;0;0;0;0;0;0;0;0;0;0;45;0;0;0;0;0;0;0;0;-1.82705;0;0;0
-24.729293;19.601678;-0.99742;0;0;0;0;2.220446e-16;0;3.439279e-22;0;0;0;0;2.220446e-16;-5.32703e-28;1.110223e-16;45;0;1.480297e-16;1.480297e-16;2.220446e-16;6.878559e-22;0;0;-6.878559e-22;-1.020579;2.220446e-16;-2.220446e-16;0
-23.116307;19.601678;-0.262149;0;0;0;0;0;-1.110223e-16;-1.97617e-17;0;0;0;0;3.412636e-18;-1.144349e-16;5.892379e-17;45;0;7.856505e-17;7.745257e-17;0;-4.349396e-17;3.970556e-18;-1.110223e-16;4.746451e-17;-0.271932;-1.110223e-16;1.110223e-16;0
-21.503321;19.601678;0.442211;0;0;0;0;-1.110223e-16;0;-8.15506e-18;0;0;0;0;5.958262e-19;-1.116181e-16;5.610698e-17;45;0;7.48093e-17;7.461149e-17;-1.110223e-16;-1.631012e-17;0;0;1.631012e-17;0.430021;-1.110223e-16;1.110223e-16;0
-19.890335;19.601678;1.109508;0;0;0;0;0;2.220446e-16;-1.15368e-17;0;0;0;0;2.226424e-16;-5.978098e-19;1.116201e-16;45;0;1.488268e-16;1.486279e-16;0;-1.902478e-17;-4.048826e-18;2.220446e-16;1.497595e-17;1.08534;2.220446e-16;-2.220446e-16;0
-18.277349;19.601678;1.707673;0;0;0;0;2.220446e-16;2.220446e-16;-2.514781e-17;0;0;0;0;2.471924e-16;1.968968e-16;2.514781e-17;45;0;3.353041e-17;1.50851e-16;2.220446e-16;-4.618967e-17;-4.105949e-18;2.220446e-16;4.208372e-17;1.682027;4.440892e-16;-4.440892e-16;0
-16.664363;19.601678;2.235786;0;0;0;0;2.220446e-16;2.220446e-16;-2.517243e-17;0;0;0;0;2.47217e-16;1.968722e-16;2.517243e-17;45;0;3.356324e-17;1.508565e-16;2.220446e-16;-4.618551e-17;-4.159357e-18;2.220446e-16;4.202616e-17;2.209025;4.440892e-16;-4.440892e-16;0
-15.051377;19.601678;2.691734;0;0;0;0;0;-1.110223e-16;-9.821131e-18;0;0;0;0;8.620918e-19;-1.118844e-16;5.637325e-17;45;0;7.516433e-17;7.487861e-17;0;-2.173842e-17;2.09616e-18;-1.110223e-16;2.383458e-17;2.681795;-1.110223e-16;1.110223e-16;0
-13.438391;19.601678;3.123664;0;0;0;0;2.220446e-16;2.220446e-16;-3.465706e-18;0;0;0;0;2.255103e-16;2.185789e-16;3.465706e-18;45;0;4.620942e-18;1.480838e-16;2.220446e-16;-2.717152e-18;-4.214261e-18;2.220446e-16;-1.49711e-18;3.108604;4.440892e-16;-4.440892e-16;0
-11.825405;19.601678;3.51031;0;0;0;0;0;-1.110223e-16;2.279182e-17;0;0;0;0;4.496805e-18;-1.155191e-16;6.000796e-17;45;0;8.001061e-17;7.855459e-17;0;4.346052e-17;2.123111e-18;-1.110223e-16;-4.133741e-17;3.49149;-1.110223e-16;1.110223e-16;0
-10.212419;19.601678;3.836528;0;0;0;0;2.220446e-16;0;-1.357651e-18;0;0;0;0;2.220529e-16;-8.300793e-21;1.110306e-16;45;0;1.480408e-16;1.48038e-16;2.220446e-16;-2.715301e-18;0;0;2.715301e-18;3.837013;2.220446e-16;-2.220446e-16;0
-8.599433;19.601678;4.16258;0;0;0;0;0;-1.110223e-16;1.192441e-17;0;0;0;0;1.266304e-18;-1.122886e-16;5.677745e-17;45;0;7.570327e-17;7.528473e-17;0;2.171704e-17;2.131771e-18;-1.110223e-16;-1.958527e-17;4.161137;-1.110223e-16;1.110223e-16;0
-6.986447;19.601678;4.489865;0;0;0;0;0;0;1.085657e-17;0;0;0;0;1.085657e-17;-1.085657e-17;1.085657e-17;45;0;1.447543e-17;1.253609e-17;0;2.171315e-17;0;0;-2.171315e-17;4.46518;0;0;0
-5.373461;19.601678;4.754797;0;0;0;0;0;-1.110223e-16;5.383181e-19;0;0;0;0;2.610103e-21;-1.110249e-16;5.551376e-17;45;0;7.401835e-17;7.401748e-17;0;0;1.076636e-18;-1.110223e-16;1.076636e-18;4.725494;-1.110223e-16;1.110223e-16;0
-3.760475;19.601678;4.944678;0;0;0;0;0;2.220446e-16;-5.409073e-19;0;0;0;0;2.220459e-16;-1.317659e-21;1.110236e-16;45;0;1.480315e-16;1.480311e-16;0;0;-1.081815e-18;2.220446e-16;-1.081815e-18;4.922585;2.220446e-16;-2.220446e-16;0
-2.147489;19.601678;5.080364;0;0;0;0;2.220446e-16;0;-1.120253e-17;0;0;0;0;2.226084e-16;-5.637556e-19;1.115861e-16;45;0;1.487814e-16;1.485939e-16;2.220446e-16;-2.240506e-17;0;0;2.240506e-17;5.053217;2.220446e-16;-2.220446e-16;0
-0.534503;19.601678;5.146127;0;0;0;0;-1.110223e-16;-1.110223e-16;3.056393e-19;0;0;0;0;-1.107167e-16;-1.113279e-16;3.056393e-19;45;0;4.075191e-19;7.401571e-17;-1.110223e-16;3.395354e-19;2.717433e-19;-1.110223e-16;-6.779208e-20;5.1271;-2.220446e-16;2.220446e-16;0
1.078483;19.601678;5.165594;0;0;0;0;-1.110223e-16;-1.110223e-16;-1.071091e-17;0;0;0;0;-1.003114e-16;-1.217332e-16;1.071091e-17;45;0;1.428121e-17;7.504109e-17;-1.110223e-16;-2.155772e-17;1.358957e-19;-1.110223e-16;2.169361e-17;5.169481;-2.220446e-16;2.220446e-16;0
2.691469;19.601678;5.203872;0;0;0;0;2.220446e-16;0;-1.085795e-17;0;0;0;0;2.225743e-16;-5.296891e-19;1.11552e-16;45;0;1.48736e-16;1.485597e-16;2.220446e-16;-2.171591e-17;0;0;2.171591e-17;5.202972;2.220446e-16;-2.220446e-16;0
4.304455;19.601678;5.240203;0;0;0;0;0;0;1.087285e-17;0;0;0;0;1.087285e-17;-1.087285e-17;1.087285e-17;45;0;1.449713e-17;1.255489e-17;0;2.17457e-17;0;0;-2.17457e-17;5.21218;0;0;0
5.917441;19.601678;5.187823;0;0;0;0;-1.110223e-16;-1.110223e-16;-2.231148e-17;0;0;0;0;-8.871082e-17;-1.333338e-16;2.231148e-17;45;0;2.974864e-17;7.837051e-17;-1.110223e-16;-4.407991e-17;-5.430594e-19;-1.110223e-16;4.353685e-17;5.173871;-2.220446e-16;2.220446e-16;0
7.530427;19.601678;5.08623;0;0;0;0;0;-1.110223e-16;-2.224856e-17;0;0;0;0;4.292581e-18;-1.153149e-16;5.980374e-17;45;0;7.973831e-17;7.834666e-17;0;-4.341317e-17;-1.083957e-18;-1.110223e-16;4.232921e-17;5.071599;-1.110223e-16;1.110223e-16;0
9.143413;19.601678;4.931422;0;0;0;0;0;0;0;0;0;0;0;0;0;0;45;0;0;0;0;0;0;0;0;4.91969;0;0;0
10.756399;19.601678;4.728892;0;0;0;0;2.220446e-16;0;-1.017757e-17;0;0;0;0;2.225101e-16;-4.655203e-19;1.114878e-16;45;0;1.486504e-16;1.484955e-16;2.220446e-16;-2.035514e-17;0;0;2.035514e-17;4.721493;2.220446e-16;-2.220446e-16;0
12.369385;19.601678;4.488747;0;0;0;0;0;2.220446e-16;-9.780624e-18;0;0;0;0;2.224746e-16;-4.299844e-19;1.114523e-16;45;0;1.48603e-16;1.484599e-16;0;-2.170939e-17;2.148148e-18;2.220446e-16;2.385754e-17;4.485057;2.220446e-16;-2.220446e-16;0
13.982371;19.601678;4.221874;0;0;0;0;0;0;-1.085464e-17;0;0;0;0;1.085464e-17;-1.085464e-17;1.085464e-17;45;0;1.447285e-17;1.253386e-17;0;-2.170928e-17;0;0;2.170928e-17;4.210055;0;0;0
15.595357;19.601678;3.907941;0;0;0;0;-1.110223e-16;0;-1.357069e-18;0;0;0;0;1.65855e-20;-1.110389e-16;5.552773e-17;45;0;7.403698e-17;7.403145e-17;-1.110223e-16;-2.714137e-18;0;0;2.714137e-18;3.892326;-1.110223e-16;1.110223e-16;0
17.208343;19.601678;3.541997;0;0;0;0;-1.110223e-16;-1.110223e-16;-2.413893e-18;0;0;0;0;-1.086084e-16;-1.134362e-16;2.413893e-18;45;0;3.218525e-18;7.406733e-17;-1.110223e-16;-2.714898e-18;-2.112889e-18;-1.110223e-16;6.020096e-19;3.524911;-2.220446e-16;2.220446e-16;0
18.821329;19.601678;3.125609;0;0;0;0;2.220446e-16;0;1.222247e-17;0;0;0;0;2.227154e-16;-6.707612e-19;1.116931e-16;45;0;1.489241e-16;1.48701e-16;2.220446e-16;2.444494e-17;0;0;-2.444494e-17;3.109194;2.220446e-16;-2.220446e-16;0
20.434315;19.601678;2.662416;0;0;0;0;2.220446e-16;2.220446e-16;3.439482e-18;0;0;0;0;2.254841e-16;2.186051e-16;3.439482e-18;45;0;4.585975e-18;1.48083e-16;2.220446e-16;2.716255e-18;4.162708e-18;2.220446e-16;1.446453e-18;2.645473;4.440892e-16;-4.440892e-16;0
22.047301;19.601678;2.148839;0;0;0;0;0;2.220446e-16;1.428629e-17;0;0;0;0;2.2296e-16;-9.154023e-19;1.119377e-16;45;0;1.492503e-16;1.489461e-16;0;2.444859e-17;4.123987e-18;2.220446e-16;-2.032461e-17;2.132117;2.220446e-16;-2.220446e-16;0
23.660287;19.601678;1.582082;0;0;0;0;-1.110223e-16;2.220446e-16;1.019022e-17;0;0;0;0;2.223561e-16;-1.113338e-16;1.668449e-16;45;0;2.224599e-16;1.961781e-16;-1.110223e-16;1.629896e-17;4.08147e-18;2.220446e-16;-1.221749e-17;1.566374;1.110223e-16;-1.110223e-16;0
25.273273;19.601678;0.962397;0;0;0;0;0;0;0;0;0;0;0;0;0;0;45;0;0;0;0;0;0;0;0;0.947565;0;0;0
26.886259;19.601678;0.29039;0;0;0;0;2.220446e-16;0;-1.111078e-22;0;0;0;0;2.220446e-16;-5.559004e-29;1.110223e-16;45;0;1.480297e-16;1.480297e-16;2.220446e-16;-2.222155e-22;0;0;2.222155e-22;0.276769;2.220446e-16;-2.220446e-16;0
28.499246;19.601678;-0.431816;0;0;0;0;0;-1.110223e-16;1.97691e-17;0;0;0;0;3.41512e-18;-1.144374e-16;5.892627e-17;45;0;7.856836e-17;7.745509e-17;0;4.348441e-17;-3.946206e-18;-1.110223e-16;-4.743062e-17;-0.444448;-1.110223e-16;1.110223e-16;0
30.112232;19.601678;-1.201772;0;0;0;0;0;0;-1.087178e-17;0;0;0;0;1.087178e-17;-1.087178e-17;1.087178e-17;45;0;1.449571e-17;1.255366e-17;0;-2.174357e-17;0;0;2.174357e-17;-1.224372;0;0;0
31.725218;19.601678;-2.047982;0;0;0;0;0;0;-1.2549e-17;0;0;0;0;1.2549e-17;-1.2549e-17;1.2549e-17;45;0;1.673199e-17;1.449033e-17;0;-2.509799e-17;0;0;2.509799e-17;-2.052799;0;0;0
33.338204;19.601678;-2.912319;0;0;0;0;0;-2.220446e-16;-5.338402e-18;0;0;0;0;1.282719e-19;-2.221729e-16;1.111506e-16;45;0;1.482008e-16;1.48158e-16;0;4.89151e-17;-5.95919e-17;-2.220446e-16;-1.08507e-16;-2.914848;-2.220446e-16;2.220446e-16;0
-44.085126;17.988692;-15.931459;0;0;0;0;0;-2.220446e-16;2.274747e-17;0;0;0;0;2.306419e-18;-2.24351e-16;1.133287e-16;45;0;1.51105e-16;1.50342e-16;0;0;4.549495e-17;-2.220446e-16;4.549495e-17;-15.930487;-2.220446e-16;2.220446e-16;0
-42.47214;17.988692;-14.160509;0;0;0;0;2.220446e-16;0;-9.313168e-19;0;0;0;0;2.220485e-16;-3.906133e-21;1.110262e-16;45;0;1.480349e-16;1.480336e-16;2.220446e-16;-1.862634e-18;0;0;1.862634e-18;-14.191158;2.220446e-16;-2.220446e-16;0
-40.859154;17.988692;-12.50067;0;0;0;0;-2.220446e-16;-1.110223e-16;6.987889e-18;0;0;0;0;-1.105842e-16;-2.224827e-16;5.594925e-17;45;0;7.4599e-17;1.284512e-16;-2.220446e-16;1.089139e-17;3.084388e-18;-1.110223e-16;-7.807003e-18;-12.537428;-3.330669e-16;3.330669e-16;0
-39.246168;17.988692;-10.951517;0;0;0;0;0;-1.110223e-16;4.318932e-18;0;0;0;0;1.677593e-19;-1.111901e-16;5.567891e-17;45;0;7.423855e-17;7.418269e-17;0;5.447359e-18;3.190505e-18;-1.110223e-16;-2.256854e-18;-10.991028;-1.110223e-16;1.110223e-16;0
-37.633182;17.988692;-9.513135;0;0;0;0;0;0;1.089298e-17;0;0;0;0;1.089298e-17;-1.089298e-17;1.089298e-17;45;0;1.452397e-17;1.257813e-17;0;2.178596e-17;0;0;-2.178596e-17;-9.552521;0;0;0
-36.020196;17.988692;-8.18506;0;0;0;0;0;0;1.089094e-17;0;0;0;0;1.089094e-17;-1.089094e-17;1.089094e-17;45;0;1.452125e-17;1.257577e-17;0;2.178188e-17;0;0;-2.178188e-17;-8.215624;0;0;0
-34.40721;17.988692;-6.948114;0;0;0;0;-1.110223e-16;0;1.360898e-17;0;0;0;0;1.643833e-18;-1.126661e-16;5.715498e-17;45;0;7.620665e-17;7.566465e-17;-1.110223e-16;2.721796e-17;0;0;-2.721796e-17;-6.969691;-1.110223e-16;1.110223e-16;0
-32.794224;17.988692;-5.778349;0;0;0;0;0;-1.110223e-16;-9.098978e-18;0;0;0;0;7.407761e-19;-1.117631e-16;5.625193e-17;45;0;7.500257e-17;7.475686e-17;0;-2.176816e-17;3.570207e-18;-1.110223e-16;2.533837e-17;-5.810241;-1.110223e-16;1.110223e-16;0
-31.181238;17.988692;-4.703713;0;0;0;0;2.220446e-16;-1.110223e-16;9.99155e-18;0;0;0;0;2.223441e-16;-1.113218e-16;1.668329e-16;45;0;2.224439e-16;1.961645e-16;2.220446e-16;1.632378e-17;3.659316e-18;-1.110223e-16;-1.266447e-17;-4.732018;1.110223e-16;-1.110223e-16;0
-29.568251;17.988692;-3.708122;0;0;0;0;0;0;3.26417e-17;0;0;0;0;3.26417e-17;-3.26417e-17;3.26417e-17;45;0;4.352226e-17;3.769138e-17;0;6.528339e-17;0;0;-6.528339e-17;-3.733749;0;0;0
-27.955265;17.988692;-2.781429;0;0;0;0;0;-1.110223e-16;-8.979763e-18;0;0;0;0;7.216154e-19;-1.117439e-16;5.623276e-17;45;0;7.497702e-17;7.473765e-17;0;-2.175722e-17;3.797697e-18;-1.110223e-16;2.555492e-17;-2.802506;-1.110223e-16;1.110223e-16;0
-26.342279;17.988692;-1.91081;0;0;0;0;0;2.220446e-16;-1.280362e-17;0;0;0;0;2.227805e-16;-7.358482e-19;1.117581e-16;45;0;1.490109e-16;1.487662e-16;0;-2.175011e-17;-3.857123e-18;2.220446e-16;1.789299e-17;-1.934082;2.220446e-16;-2.220446e-16;0
-24.729293;17.988692;-1.105455;0;0;0;0;2.220446e-16;0;8.155411e-18;0;0;0;0;2.223437e-16;-2.991347e-19;1.113214e-16;45;0;1.484286e-16;1.48329e-16;2.220446e-16;1.631082e-17;0;0;-1.631082e-17;-1.126873;2.220446e-16;-2.220446e-16;0
-23.116307;17.988692;-0.364083;0;0;0;0;-1.110223e-16;-1.110223e-16;3.732845e-17;0;0;0;0;-7.369385e-17;-1.483508e-16;3.732845e-17;45;0;4.977127e-17;8.565095e-17;-1.110223e-16;7.06892e-17;3.967704e-18;-1.110223e-16;-6.672149e-17;-0.375602;-2.220446e-16;2.220446e-16;0
-21.503321;17.988692;0.33993;0;0;0;0;0;0;1.087446e-17;0;0;0;0;1.087446e-17;-1.087446e-17;1.087446e-17;45;0;1.449928e-17;1.255674e-17;0;2.174892e-17;0;0;-2.174892e-17;0.327728;0;0;0
-19.890335;17.988692;1.004391;0;0;0;0;0;0;-1.358829e-18;0;0;0;0;1.358829e-18;-1.358829e-18;1.358829e-18;45;0;1.811772e-18;1.56904e-18;0;-2.717658e-18;0;0;2.717658e-18;0.981335;0;0;0
-18.277349;17.988692;1.59756;0;0;0;0;-1.110223e-16;-1.110223e-16;1.29197e-17;0;0;0;0;-9.810261e-17;-1.23942e-16;1.29197e-17;45;0;1.722626e-17;7.550337e-17;-1.110223e-16;2.173209e-17;4.107304e-18;-1.110223e-16;-1.762478e-17;1.576249;-2.220446e-16;2.220446e-16;0
-16.664363;17.988692;2.12589;0;0;0;0;-1.110223e-16;2.220446e-16;2.100652e-17;0;0;0;0;2.233643e-16;-1.12342e-16;1.678531e-16;45;0;2.238041e-16;1.973215e-16;-1.110223e-16;4.617056e-17;-4.157512e-18;2.220446e-16;-5.032807e-17;2.103483;1.110223e-16;-1.110223e-16;0
-15.051377;17.988692;2.58928;0;0;0;0;0;2.220446e-16;8.769172e-18;0;0;0;0;2.223904e-16;-3.45781e-19;1.113681e-16;45;0;1.484908e-16;1.483756e-16;0;2.17281e-17;-4.189756e-18;2.220446e-16;-2.591786e-17;2.577984;2.220446e-16;-2.220446e-16;0
-13.438391;17.988692;3.026082;0;0;0;0;0;-1.110223e-16;-9.811973e-18;0;0;0;0;8.604969e-19;-1.118828e-16;5.637165e-17;45;0;7.51622e-17;7.487701e-17;0;-2.173087e-17;2.106921e-18;-1.110223e-16;2.383779e-17;3.00604;-1.110223e-16;1.110223e-16;0
-11.825405;17.988692;3.411061;0;0;0;0;0;-1.110223e-16;1.061832e-18;0;0;0;0;1.015458e-20;-1.110325e-16;5.552131e-17;45;0;7.402841e-17;7.402502e-17;0;0;2.123665e-18;-1.110223e-16;2.123665e-18;3.388592;-1.110223e-16;1.110223e-16;0
-10.212419;17.988692;3.731866;0;0;0;0;0;0;1.086401e-17;0;0;0;0;1.086401e-17;-1.086401e-17;1.086401e-17;45;0;1.448535e-17;1.254468e-17;0;2.172802e-17;0;0;-2.172802e-17;3.731772;0;0;0
-8.599433;17.988692;4.048548;0;0;0;0;0;0;0;0;0;0;0;0;0;0;45;0;0;0;0;0;0;0;0;4.052494;0;0;0
-6.986447;17.988692;4.370059;0;0;0;0;0;2.220446e-16;-1.069594e-18;0;0;0;0;2.220498e-16;-5.152144e-21;1.110275e-16;45;0;1.480366e-16;1.480349e-16;0;0;-2.139189e-18;2.220446e-16;-2.139189e-18;4.354381;2.220446e-16;-2.220446e-16;0
-5.373461;17.988692;4.638633;0;0;0;0;2.220446e-16;-1.110223e-16;1.057287e-17;0;0;0;0;2.223799e-16;-1.113576e-16;1.668687e-16;45;0;2.224917e-16;1.962051e-16;2.220446e-16;1.899327e-17;2.152471e-18;-1.110223e-16;-1.68408e-17;4.615767;1.110223e-16;-1.110223e-16;0
-3.760475;17.988692;4.835012;0;0;0;0;0;-1.110223e-16;1.139678e-17;0;0;0;0;1.15784e-18;-1.121801e-16;5.666899e-17;45;0;7.555865e-17;7.517568e-17;0;2.171204e-17;1.081525e-18;-1.110223e-16;-2.063052e-17;4.816343;-1.110223e-16;1.110223e-16;0
-2.147489;17.988692;4.973766;0;0;0;0;0;0;-1.085839e-17;0;0;0;0;1.085839e-17;-1.085839e-17;1.085839e-17;45;0;1.447786e-17;1.253819e-17;0;-2.171679e-17;0;0;2.171679e-17;4.950676;0;0;0
-0.534503;17.988692;5.043333;0;0;0;0;0;0;1.183263e-23;0;0;0;0;1.183263e-23;-1.183263e-23;1.183263e-23;45;0;1.577684e-23;1.366314e-23;0;2.366526e-23;0;0;-2.366526e-23;5.026133;0;0;0
1.078483;17.988692;5.062758;0;0;0;0;2.220446e-16;0;1.077499e-17;0;0;0;0;2.225662e-16;-5.216442e-19;1.115439e-16;45;0;1.487253e-16;1.485517e-16;2.220446e-16;2.154998e-17;0;0;-2.154998e-17;5.067641;2.220446e-16;-2.220446e-16;0
2.691469;17.988692;5.097517;0;0;0;0;0;2.220446e-16;-1.358896e-19;0;0;0;0;2.220447e-16;-8.31634e-23;1.110224e-16;45;0;1.480298e-16;1.480298e-16;0;0;-2.717793e-19;2.220446e-16;-2.717793e-19;5.096927;2.220446e-16;-2.220446e-16;0
4.304455;17.988692;5.128601;0;0;0;0;0;2.220446e-16;1.092418e-17;0;0;0;0;2.225808e-16;-5.361542e-19;1.115585e-16;45;0;1.487446e-16;1.485662e-16;0;2.171244e-17;1.359165e-19;2.220446e-16;-2.157652e-17;5.101853;2.220446e-16;-2.220446e-16;0
5.917441;17.988692;5.075371;0;0;0;0;2.220446e-16;0;3.392352e-19;0;0;0;0;2.220451e-16;-5.182754e-22;1.110228e-16;45;0;1.480304e-16;1.480303e-16;2.220446e-16;6.784704e-19;0;0;-6.784704e-19;5.062024;2.220446e-16;-2.220446e-16;0
7.530427;17.988692;4.978344;0;0;0;0;0;2.220446e-16;1.140062e-17;0;0;0;0;2.226284e-16;-5.838168e-19;1.116061e-16;45;0;1.488082e-16;1.486139e-16;0;2.171707e-17;1.084174e-18;2.220446e-16;-2.06329e-17;4.961809;2.220446e-16;-2.220446e-16;0
9.143413;17.988692;4.828531;0;0;0;0;2.220446e-16;2.220446e-16;1.208254e-17;0;0;0;0;2.341271e-16;2.099621e-16;1.208254e-17;45;0;1.611005e-17;1.486858e-16;2.220446e-16;2.308408e-17;1.080994e-18;2.220446e-16;-2.200308e-17;4.812906;4.440892e-16;-4.440892e-16;0
10.756399;17.988692;4.627176;0;0;0;0;0;2.220446e-16;-9.788854e-18;0;0;0;0;2.224753e-16;-4.307069e-19;1.11453e-16;45;0;1.48604e-16;1.484607e-16;0;-2.173216e-17;2.154453e-18;2.220446e-16;2.388661e-17;4.615916;2.220446e-16;-2.220446e-16;0
12.369385;17.988692;4.383931;0;0;0;0;-1.110223e-16;0;1.018695e-17;0;0;0;0;9.269727e-19;-1.119493e-16;5.643812e-17;45;0;7.525083e-17;7.494375e-17;-1.110223e-16;2.03739e-17;0;0;-2.03739e-17;4.378537;-1.110223e-16;1.110223e-16;0
13.982371;17.988692;4.114196;0;0;0;0;0;-1.110223e-16;-1.069678e-18;0;0;0;0;1.030517e-20;-1.110326e-16;5.552145e-17;45;0;7.402861e-17;7.402517e-17;0;0;-2.139355e-18;-1.110223e-16;-2.139355e-18;4.101771;-1.110223e-16;1.110223e-16;0
15.595357;17.988692;3.797767;0;0;0;0;0;-1.110223e-16;9.798043e-18;0;0;0;0;8.580741e-19;-1.118804e-16;5.636922e-17;45;0;7.515897e-17;7.487458e-17;0;2.172325e-17;-2.127164e-18;-1.110223e-16;-2.385041e-17;3.783167;-1.110223e-16;1.110223e-16;0
17.208343;17.988692;3.431833;0;0;0;0;-1.110223e-16;0;-1.357562e-18;0;0;0;0;1.659756e-20;-1.110389e-16;5.552775e-17;45;0;7.4037e-17;7.403147e-17;-1.110223e-16;-2.715124e-18;0;0;2.715124e-18;3.416364;-1.110223e-16;1.110223e-16;0
18.821329;17.988692;3.017513;0;0;0;0;0;0;0;0;0;0;0;0;0;0;45;0;0;0;0;0;0;0;0;3.002303;0;0;0
20.434315;17.988692;2.558049;0;0;0;0;-1.110223e-16;-1.110223e-16;-1.326434e-17;0;0;0;0;-9.775796e-17;-1.242867e-16;1.326434e-17;45;0;1.768579e-17;7.558301e-17;-1.110223e-16;-2.444729e-17;-2.081401e-18;-1.110223e-16;2.236589e-17;2.539081;-2.220446e-16;2.220446e-16;0
22.047301;17.988692;2.042742;0;0;0;0;0;-1.110223e-16;8.805915e-18;0;0;0;0;6.941158e-19;-1.117164e-16;5.620527e-17;45;0;7.494035e-17;7.471006e-17;0;2.173416e-17;-4.12233e-18;-1.110223e-16;-2.585649e-17;2.024836;-1.110223e-16;1.110223e-16;0
23.660287;17.988692;1.474185;0;0;0;0;-1.110223e-16;0;-1.222655e-17;0;0;0;0;1.330527e-18;-1.123528e-16;5.684167e-17;45;0;7.57889e-17;7.534931e-17;-1.110223e-16;-2.445309e-17;0;0;2.445309e-17;1.457587;-1.110223e-16;1.110223e-16;0
25.273273;17.988692;0.855058;0;0;0;0;-1.110223e-16;2.220446e-16;1.017187e-17;0;0;0;0;2.22355e-16;-1.113327e-16;1.668438e-16;45;0;2.224584e-16;1.961769e-16;-1.110223e-16;1.630561e-17;4.03813e-18;2.220446e-16;-1.226748e-17;0.83877;1.110223e-16;-1.110223e-16;0
26.886259;17.988692;0.18584;0;0;0;0;-1.110223e-16;2.220446e-16;-7.216392e-19;0;0;0;0;2.220462e-16;-1.110239e-16;1.66535e-16;45;0;2.220467e-16;1.958267e-16;-1.110223e-16;-5.436137e-18;3.992859e-18;2.220446e-16;9.428995e-18;0.168829;1.110223e-16;-1.110223e-16;0
28.499246;17.988692;-0.535505;0;0;0;0;-1.110223e-16;0;-1.087432e-17;0;0;0;0;1.055081e-18;-1.120774e-16;5.656623e-17;45;0;7.542165e-17;7.507242e-17;-1.110223e-16;-2.174863e-17;0;0;2.174863e-17;-0.552561;-1.110223e-16;1.110223e-16;0
30.112232;17.988692;-1.309024;0;0;0;0;0;2.220446e-16;1.281644e-17;0;0;0;0;2.227819e-16;-7.373181e-19;1.117596e-16;45;0;1.490128e-16;1.487677e-16;0;2.174971e-17;3.883175e-18;2.220446e-16;-1.786653e-17;-1.334469;2.220446e-16;-2.220446e-16;0
31.725218;17.988692;-2.160242;0;0;0;0;-1.110223e-16;2.220446e-16;1.917153e-18;0;0;0;0;2.220556e-16;-1.110333e-16;1.665445e-16;45;0;2.220593e-16;1.958374e-16;-1.110223e-16;4.768116e-23;3.834258e-18;2.220446e-16;3.83421e-18;-2.166916;1.110223e-16;-1.110223e-16;0
33.338204;17.988692;-3.033567;0;0;0;0;0;0;0;0;0;0;0;0;0;0;45;0;0;0;0;0;0;0;0;-3.03266;0;0;0
-44.085126;16.375706;-16.033339;0;0;0;0;0;0;0;0;0;0;0;0;0;0;45;0;0;0;0;0;0;0;0;-16.029204;0;0;0
-42.47214;16.375706;-14.258066;0;0;0;0;0;2.220446e-16;-1.843034e-17;0;0;0;0;2.23564e-16;-1.519374e-18;1.125417e-16;45;0;1.500556e-16;1.495517e-16;0;-4.960037e-17;1.27397e-17;2.220446e-16;6.234007e-17;-14.293296;2.220446e-16;-2.220446e-16;0
-40.859154;16.375706;-12.610572;0;0;0;0;2.220446e-16;0;-5.446652e-18;0;0;0;0;2.221781e-16;-1.335236e-19;1.111558e-16;45;0;1.482078e-16;1.481633e-16;2.220446e-16;-1.08933e-17;0;0;1.08933e-17;-12.640606;2.220446e-16;-2.220446e-16;0
-39.246168;16.375706;-11.060309;0;0;0;0;-2.220446e-16;0;1.633629e-17;0;0;0;0;1.195459e-18;-2.232401e-16;1.122178e-16;45;0;1.496237e-16;1.492268e-16;-2.220446e-16;3.267258e-17;0;0;-3.267258e-17;-11.094935;-2.220446e-16;2.220446e-16;0
-37.633182;16.375706;-9.609237;0;0;0;0;2.220446e-16;2.220446e-16;-1.69042e-17;0;0;0;0;2.389488e-16;2.051404e-16;1.69042e-17;45;0;2.253893e-17;1.493111e-16;2.220446e-16;-2.722065e-17;-6.587744e-18;2.220446e-16;2.063291e-17;-9.654375;4.440892e-16;-4.440892e-16;0
-36.020196;16.375706;-8.278817;0;0;0;0;0;2.220446e-16;7.485598e-18;0;0;0;0;2.222967e-16;-2.520694e-19;1.112744e-16;45;0;1.483658e-16;1.482819e-16;0;2.177594e-17;-6.804739e-18;2.220446e-16;-2.858068e-17;-8.317791;2.220446e-16;-2.220446e-16;0
-34.40721;16.375706;-7.047367;0;0;0;0;2.220446e-16;0;-2.720955e-18;0;0;0;0;2.220779e-16;-3.333783e-20;1.110556e-16;45;0;1.480742e-16;1.480631e-16;2.220446e-16;-5.44191e-18;0;0;5.44191e-18;-7.074685;2.220446e-16;-2.220446e-16;0
-32.794224;16.375706;-5.88485;0;0;0;0;2.220446e-16;0;1.904413e-17;0;0;0;0;2.236661e-16;-1.62152e-18;1.126438e-16;45;0;1.501918e-16;1.496542e-16;2.220446e-16;3.808827e-17;0;0;-3.808827e-17;-5.917806;2.220446e-16;-2.220446e-16;0
-31.181238;16.375706;-4.814767;0;0;0;0;0;-1.110223e-16;1.270873e-17;0;0;0;0;1.43619e-18;-1.124585e-16;5.694734e-17;45;0;7.592979e-17;7.545561e-17;0;2.175979e-17;3.657669e-18;-1.110223e-16;-1.810212e-17;-4.839075;-1.110223e-16;1.110223e-16;0
-29.568251;16.375706;-3.815324;0;0;0;0;2.220446e-16;-1.110223e-16;1.866261e-18;0;0;0;0;2.220551e-16;-1.110328e-16;1.665439e-16;45;0;2.220586e-16;1.958368e-16;2.220446e-16;0;3.732522e-18;-1.110223e-16;3.732522e-18;-3.839343;1.110223e-16;-1.110223e-16;0
-27.955265;16.375706;-2.888452;0;0;0;0;0;-1.110223e-16;2.36537e-17;0;0;0;0;4.829428e-18;-1.158517e-16;6.034058e-17;45;0;8.045411e-17;7.889358e-17;0;4.350643e-17;3.800972e-18;-1.110223e-16;-3.970546e-17;-2.908986;-1.110223e-16;1.110223e-16;0
-26.342279;16.375706;-2.023564;0;0;0;0;2.220446e-16;-1.110223e-16;-7.887812e-19;0;0;0;0;2.220465e-16;-1.110242e-16;1.665353e-16;45;0;2.220471e-16;1.958271e-16;2.220446e-16;-5.436581e-18;3.859019e-18;-1.110223e-16;9.2956e-18;-2.042497;1.110223e-16;-1.110223e-16;0
-24.729293;16.375706;-1.213456;0;0;0;0;0;0;-1.087241e-17;0;0;0;0;1.087241e-17;-1.087241e-17;1.087241e-17;45;0;1.449655e-17;1.255438e-17;0;-2.174483e-17;0;0;2.174483e-17;-1.234644;0;0;0
-23.116307;16.375706;-0.461493;0;0;0;0;2.220446e-16;0;2.957313e-22;0;0;0;0;2.220446e-16;-3.938635e-28;1.110223e-16;45;0;1.480297e-16;1.480297e-16;2.220446e-16;5.914626e-22;0;0;-5.914626e-22;-0.480611;2.220446e-16;-2.220446e-16;0
-21.503321;16.375706;0.2415;0;0;0;0;-1.110223e-16;-1.110223e-16;4.72081e-18;0;0;0;0;-1.063015e-16;-1.157431e-16;4.72081e-18;45;0;6.294414e-18;7.421533e-17;-1.110223e-16;5.436099e-18;4.005521e-18;-1.110223e-16;-1.430578e-18;0.223897;-2.220446e-16;2.220446e-16;0
-19.890335;16.375706;0.899733;0;0;0;0;0;0;1.358713e-18;0;0;0;0;1.358713e-18;-1.358713e-18;1.358713e-18;45;0;1.811617e-18;1.568906e-18;0;2.717425e-18;0;0;-2.717425e-18;0.875527;0;0;0
-18.277349;16.375706;1.489503;0;0;0;0;0;2.220446e-16;-3.412746e-18;0;0;0;0;2.22097e-16;-5.244029e-20;1.110747e-16;45;0;1.480997e-16;1.480822e-16;0;-2.716661e-18;-4.10883e-18;2.220446e-16;-1.392169e-18;1.468285;2.220446e-16;-2.220446e-16;0
-16.664363;16.375706;2.016192;0;0;0;0;-1.110223e-16;0;1.357714e-18;0;0;0;0;1.660127e-20;-1.110389e-16;5.552775e-17;45;0;7.403701e-17;7.403147e-17;-1.110223e-16;2.715428e-18;0;0;-2.715428e-18;1.994543;-1.110223e-16;1.110223e-16;0
-15.051377;16.375706;2.477723;0;0;0;0;-1.110223e-16;0;2.307801e-17;0;0;0;0;4.60609e-18;-1.156284e-16;6.011724e-17;45;0;8.015632e-17;7.866592e-17;-1.110223e-16;4.615603e-17;0;0;-4.615603e-17;2.469177;-1.110223e-16;1.110223e-16;0
-13.438391;16.375706;2.915506;0;0;0;0;0;0;0;0;0;0;0;0;0;0;45;0;0;0;0;0;0;0;0;2.899518;0;0;0
-11.825405;16.375706;3.308996;0;0;0;0;0;-1.110223e-16;1.061208e-18;0;0;0;0;1.014265e-20;-1.110324e-16;5.55213e-17;45;0;7.402839e-17;7.402501e-17;0;0;2.122416e-18;-1.110223e-16;2.122416e-18;3.284898;-1.110223e-16;1.110223e-16;0
-10.212419;16.375706;3.633314;0;0;0;0;2.220446e-16;0;-6.791224e-19;0;0;0;0;2.220467e-16;-2.077073e-21;1.110244e-16;45;0;1.480325e-16;1.480318e-16;2.220446e-16;-1.358245e-18;0;0;1.358245e-18;3.628817;2.220446e-16;-2.220446e-16;0
-8.599433;16.375706;3.94274;0;0;0;0;0;0;6.790548e-19;0;0;0;0;6.790548e-19;-6.790548e-19;6.790548e-19;45;0;9.054064e-19;7.84105e-19;0;1.35811e-18;0;0;-1.35811e-18;3.946726;0;0;0
-6.986447;16.375706;4.256944;0;0;0;0;2.220446e-16;0;-2.240186e-17;0;0;0;0;2.242821e-16;-2.237553e-18;1.132599e-16;45;0;1.510131e-16;1.502728e-16;2.220446e-16;-4.480372e-17;0;0;4.480372e-17;4.245365;2.220446e-16;-2.220446e-16;0
-5.373461;16.375706;4.525263;0;0;0;0;-1.110223e-16;0;6.786379e-19;0;0;0;0;4.148105e-21;-1.110264e-16;5.55153e-17;45;0;7.40204e-17;7.401902e-17;-1.110223e-16;1.357276e-18;0;0;-1.357276e-18;4.506646;-1.110223e-16;1.110223e-16;0
-3.760475;16.375706;4.72665;0;0;0;0;2.220446e-16;0;-1.086022e-17;0;0;0;0;2.225745e-16;-5.299097e-19;1.115522e-16;45;0;1.487363e-16;1.4856e-16;2.220446e-16;-2.172044e-17;0;0;2.172044e-17;4.709233;2.220446e-16;-2.220446e-16;0
-2.147489;16.375706;4.867921;0;0;0;0;-1.110223e-16;-1.110223e-16;6.105786e-19;0;0;0;0;-1.104117e-16;-1.116329e-16;6.105786e-19;45;0;8.141048e-19;7.401823e-17;-1.110223e-16;6.786248e-19;5.425325e-19;-1.110223e-16;-1.360923e-19;4.845394;-2.220446e-16;2.220446e-16;0
-0.534503;16.375706;4.938237;0;0;0;0;2.220446e-16;-1.110223e-16;-3.378976e-20;0;0;0;0;2.220446e-16;-1.110223e-16;1.665335e-16;45;0;2.220446e-16;1.958249e-16;2.220446e-16;-3.393164e-19;2.717368e-19;-1.110223e-16;6.110532e-19;4.9213;1.110223e-16;-1.110223e-16;0
1.078483;16.375706;4.957099;0;0;0;0;-1.110223e-16;2.220446e-16;-5.105498e-20;0;0;0;0;2.220446e-16;-1.110223e-16;1.665335e-16;45;0;2.220446e-16;1.958249e-16;-1.110223e-16;1.696844e-19;-2.717943e-19;2.220446e-16;-4.414787e-19;4.964135;1.110223e-16;-1.110223e-16;0
2.691469;16.375706;4.994233;0;0;0;0;0;0;-1.08629e-17;0;0;0;0;1.08629e-17;-1.08629e-17;1.08629e-17;45;0;1.448387e-17;1.25434e-17;0;-2.17258e-17;0;0;2.17258e-17;4.993353;0;0;0
4.304455;16.375706;5.022469;0;0;0;0;0;0;0;0;0;0;0;0;0;0;45;0;0;0;0;0;0;0;0;4.996758;0;0;0
5.917441;16.375706;4.966588;0;0;0;0;-1.110223e-16;2.220446e-16;2.715461e-19;0;0;0;0;2.220448e-16;-1.110225e-16;1.665337e-16;45;0;2.220449e-16;1.958252e-16;-1.110223e-16;3.42574e-23;5.430579e-19;2.220446e-16;5.430237e-19;4.954052;1.110223e-16;-1.110223e-16;0
7.530427;16.375706;4.872584;0;0;0;0;0;0;-3.392486e-19;0;0;0;0;3.392486e-19;-3.392486e-19;3.392486e-19;45;0;4.523315e-19;3.917306e-19;0;-6.784973e-19;0;0;6.784973e-19;4.853434;0;0;0
9.143413;16.375706;4.729387;0;0;0;0;2.220446e-16;0;6.785153e-19;0;0;0;0;2.220467e-16;-2.073361e-21;1.110244e-16;45;0;1.480325e-16;1.480318e-16;2.220446e-16;1.357031e-18;0;0;-1.357031e-18;4.706896;2.220446e-16;-2.220446e-16;0
10.756399;16.375706;4.533588;0;0;0;0;0;-1.110223e-16;-1.140172e-17;0;0;0;0;1.158834e-18;-1.121811e-16;5.666998e-17;45;0;7.555998e-17;7.517668e-17;0;-2.172592e-17;-1.077522e-18;-1.110223e-16;2.06484e-17;4.513227;-1.110223e-16;1.110223e-16;0
12.369385;16.375706;4.291567;0;0;0;0;0;0;-1.086647e-17;0;0;0;0;1.086647e-17;-1.086647e-17;1.086647e-17;45;0;1.448863e-17;1.254752e-17;0;-2.173294e-17;0;0;2.173294e-17;4.277244;0;0;0
13.982371;16.375706;4.016864;0;0;0;0;-1.110223e-16;0;1.086633e-17;0;0;0;0;1.053547e-18;-1.120759e-16;5.65647e-17;45;0;7.54196e-17;7.507088e-17;-1.110223e-16;2.173267e-17;0;0;-2.173267e-17;3.999144;-1.110223e-16;1.110223e-16;0
15.595357;16.375706;3.693057;0;0;0;0;0;0;-1.086408e-17;0;0;0;0;1.086408e-17;-1.086408e-17;1.086408e-17;45;0;1.448544e-17;1.254476e-17;0;-2.172816e-17;0;0;2.172816e-17;3.6776;0;0;0
17.208343;16.375706;3.322974;0;0;0;0;2.220446e-16;0;-9.504827e-18;0;0;0;0;2.224507e-16;-4.061202e-19;1.114284e-16;45;0;1.485712e-16;1.48436e-16;2.220446e-16;-1.900965e-17;0;0;1.900965e-17;3.308582;2.220446e-16;-2.220446e-16;0
18.821329;16.375706;2.908586;0;0;0;0;0;2.220446e-16;-8.763307e-18;0;0;0;0;2.223899e-16;-3.453194e-19;1.113676e-16;45;0;1.484902e-16;1.483752e-16;0;-2.17242e-17;4.19759e-18;2.220446e-16;2.592179e-17;2.893807;2.220446e-16;-2.220446e-16;0
20.434315;16.375706;2.451749;0;0;0;0;2.220446e-16;0;1.222038e-17;0;0;0;0;2.227151e-16;-6.705319e-19;1.116928e-16;45;0;1.489238e-16;1.487008e-16;2.220446e-16;2.444075e-17;0;0;-2.444075e-17;2.430356;2.220446e-16;-2.220446e-16;0
22.047301;16.375706;1.936222;0;0;0;0;0;-1.110223e-16;-1.428307e-17;0;0;0;0;1.808079e-18;-1.128304e-16;5.731923e-17;45;0;7.642564e-17;7.583013e-17;0;-2.444425e-17;-4.121899e-18;-1.110223e-16;2.032235e-17;1.915909;-1.110223e-16;1.110223e-16;0
23.660287;16.375706;1.367239;0;0;0;0;-1.110223e-16;0;9.508087e-18;0;0;0;0;8.083981e-19;-1.118307e-16;5.631955e-17;45;0;7.509273e-17;7.482472e-17;-1.110223e-16;1.901617e-17;0;0;-1.901617e-17;1.348835;-1.110223e-16;1.110223e-16;0
25.273273;16.375706;0.749522;0;0;0;0;0;0;-2.173744e-17;0;0;0;0;2.173744e-17;-2.173744e-17;2.173744e-17;45;0;2.898325e-17;2.510023e-17;0;-4.347488e-17;0;0;4.347488e-17;0.730903;0;0;0
26.886259;16.375706;0.082216;0;0;0;0;2.220446e-16;0;2.717687e-18;0;0;0;0;2.220779e-16;-3.32578e-20;1.110556e-16;45;0;1.480741e-16;1.48063e-16;2.220446e-16;5.435374e-18;0;0;-5.435374e-18;0.061881;2.220446e-16;-2.220446e-16;0
28.499246;16.375706;-0.63864;0;0;0;0;-1.110223e-16;2.220446e-16;-7.460751e-19;0;0;0;0;2.220463e-16;-1.11024e-16;1.665351e-16;45;0;2.220468e-16;1.958268e-16;-1.110223e-16;-5.436011e-18;3.943861e-18;2.220446e-16;9.379872e-18;-0.659951;1.110223e-16;-1.110223e-16;0
30.112232;16.375706;-1.414738;0;0;0;0;2.220446e-16;2.220446e-16;-6.215176e-18;0;0;0;0;2.282598e-16;2.158294e-16;6.215176e-18;45;0;8.286901e-18;1.482036e-16;2.220446e-16;-1.631075e-17;3.880395e-18;2.220446e-16;2.019114e-17;-1.443484;4.440892e-16;-4.440892e-16;0
31.725218;16.375706;-2.270501;0;0;0;0;2.220446e-16;2.220446e-16;1.550694e-17;0;0;0;0;2.375516e-16;2.065377e-16;1.550694e-17;45;0;2.067592e-17;1.491088e-16;2.220446e-16;2.71845e-17;3.829379e-18;2.220446e-16;-2.335513e-17;-2.279577;4.440892e-16;-4.440892e-16;0
33.338204;16.375706;-3.152096;0;0;0;0;-2.220446e-16;2.220446e-16;-1.34291e-17;0;0;0;0;2.224503e-16;-2.224503e-16;2.224503e-16;45;0;2.966004e-16;2.568635e-16;-2.220446e-16;-3.764652e-17;1.078832e-17;2.220446e-16;4.843484e-17;-3.150194;0;0;0
-42.47214;14.76272;-14.343593;0;0;0;0;2.220446e-16;0;6.408926e-18;0;0;0;0;2.222294e-16;-1.848285e-19;1.112071e-16;45;0;1.482762e-16;1.482146e-16;2.220446e-16;1.281785e-17;0;0;-1.281785e-17;-14.38309;2.220446e-16;-2.220446e-16;0
-40.859154;14.76272;-12.710384;0;0;0;0;2.220446e-16;-1.110223e-16;2.878478e-17;0;0;0;0;2.24514e-16;-1.134917e-16;1.690028e-16;45;0;2.253371e-16;1.986257e-16;2.220446e-16;5.447483e-17;3.094727e-18;-1.110223e-16;-5.13801e-17;-12.742301;1.110223e-16;-1.110223e-16;0
-39.246168;14.76272;-11.169832;0;0;0;0;0;-1.110223e-16;2.337945e-17;0;0;0;0;4.722449e-18;-1.157447e-16;6.02336e-17;45;0;8.031147e-17;7.878451e-17;0;4.3567e-17;3.191895e-18;-1.110223e-16;-4.037511e-17;-11.200489;-1.110223e-16;1.110223e-16;0
-37.633182;14.76272;-9.728754;0;0;0;0;2.220446e-16;-1.110223e-16;-3.795904e-18;0;0;0;0;2.220879e-16;-1.110656e-16;1.665767e-16;45;0;2.221023e-16;1.95874e-16;2.220446e-16;-1.088668e-17;3.294877e-18;-1.110223e-16;1.418156e-17;-9.761541;1.110223e-16;-1.110223e-16;0
-36.020196;14.76272;-8.392717;0;0;0;0;-2.220446e-16;0;5.44218e-18;0;0;0;0;1.333045e-19;-2.221779e-16;1.111556e-16;45;0;1.482075e-16;1.481631e-16;-2.220446e-16;1.088436e-17;0;0;-1.088436e-17;-8.424722;-2.220446e-16;2.220446e-16;0
-34.40721;14.76272;-7.15692;0;0;0;0;-1.110223e-16;-1.110223e-16;-6.418209e-18;0;0;0;0;-1.046041e-16;-1.174405e-16;6.418209e-18;45;0;8.557613e-18;7.438498e-17;-1.110223e-16;-1.632705e-17;3.490634e-18;-1.110223e-16;1.981769e-17;-7.18156;-2.220446e-16;2.220446e-16;0
-32.794224;14.76272;-5.999969;0;0;0;0;2.220446e-16;-1.110223e-16;9.949525e-18;0;0;0;0;2.223416e-16;-1.113193e-16;1.668304e-16;45;0;2.224405e-16;1.961617e-16;2.220446e-16;1.632386e-17;3.57519e-18;-1.110223e-16;-1.274867e-17;-6.025734;1.110223e-16;-1.110223e-16;0
-31.181238;14.76272;-4.926205;0;0;0;0;0;2.220446e-16;-1.453545e-17;0;0;0;0;2.229921e-16;-9.474746e-19;1.119698e-16;45;0;1.49293e-16;1.489782e-16;0;-2.176144e-17;-7.309458e-18;2.220446e-16;1.445199e-17;-4.947246;2.220446e-16;-2.220446e-16;0
-29.568251;14.76272;-3.920374;0;0;0;0;2.220446e-16;0;-1.08796e-17;0;0;0;0;2.225764e-16;-5.317981e-19;1.115541e-16;45;0;1.487388e-16;1.485618e-16;2.220446e-16;-2.17592e-17;0;0;2.17592e-17;-3.946218;2.220446e-16;-2.220446e-16;0
-27.955265;14.76272;-2.995704;0;0;0;0;2.220446e-16;0;1.903661e-17;0;0;0;0;2.236648e-16;-1.620247e-18;1.126425e-16;45;0;1.501901e-16;1.496529e-16;2.220446e-16;3.807321e-17;0;0;-3.807321e-17;-3.015995;2.220446e-16;-2.220446e-16;0
-26.342279;14.76272;-2.137095;0;0;0;0;0;0;1.087508e-17;0;0;0;0;1.087508e-17;-1.087508e-17;1.087508e-17;45;0;1.450011e-17;1.255747e-17;0;2.175017e-17;0;0;-2.175017e-17;-2.150478;0;0;0
-24.729293;14.76272;-1.326511;0;0;0;0;-1.110223e-16;0;2.718116e-18;0;0;0;0;6.650675e-20;-1.110888e-16;5.557766e-17;45;0;7.410354e-17;7.408138e-17;-1.110223e-16;5.436232e-18;0;0;-5.436232e-18;-1.34236;-1.110223e-16;1.110223e-16;0
-23.116307;14.76272;-0.569333;0;0;0;0;0;2.220446e-16;8.889998e-18;0;0;0;0;2.224e-16;-3.5536e-19;1.113777e-16;45;0;1.485036e-16;1.483852e-16;0;2.174224e-17;-3.962246e-18;2.220446e-16;-2.570449e-17;-0.5868;2.220446e-16;-2.220446e-16;0
-21.503321;14.76272;0.133398;0;0;0;0;0;0;0;0;0;0;0;0;0;0;45;0;0;0;0;0;0;0;0;0.118379;0;0;0
-19.890335;14.76272;0.791025;0;0;0;0;0;-1.110223e-16;3.385909e-18;0;0;0;0;1.031661e-19;-1.111255e-16;5.561432e-17;45;0;7.415242e-17;7.411806e-17;0;2.717174e-18;4.054643e-18;-1.110223e-16;1.337469e-18;0.769211;-1.110223e-16;1.110223e-16;0
-18.277349;14.76272;1.382699;0;0;0;0;0;0;1.974743e-22;0;0;0;0;1.974743e-22;-1.974743e-22;1.974743e-22;45;0;2.63299e-22;2.280236e-22;0;3.949485e-22;0;0;-3.949485e-22;1.360794;0;0;0
-16.664363;14.76272;1.907567;0;0;0;0;0;0;-1.086429e-17;0;0;0;0;1.086429e-17;-1.086429e-17;1.086429e-17;45;0;1.448571e-17;1.2545e-17;0;-2.172857e-17;0;0;2.172857e-17;1.885867;0;0;0
-15.051377;14.76272;2.364468;0;0;0;0;0;0;1.086239e-17;0;0;0;0;1.086239e-17;-1.086239e-17;1.086239e-17;45;0;1.448319e-17;1.254281e-17;0;2.172479e-17;0;0;-2.172479e-17;2.359629;0;0;0
-13.438391;14.76272;2.799884;0;0;0;0;0;0;0;0;0;0;0;0;0;0;45;0;0;0;0;0;0;0;0;2.79157;0;0;0
-11.825405;14.76272;3.202666;0;0;0;0;-1.110223e-16;2.220446e-16;-1.056598e-17;0;0;0;0;2.223794e-16;-1.113572e-16;1.668683e-16;45;0;2.224911e-16;1.962046e-16;-1.110223e-16;-1.901116e-17;-2.1208e-18;2.220446e-16;1.689036e-17;3.17998;1.110223e-16;-1.110223e-16;0
-10.212419;14.76272;3.534704;0;0;0;0;2.220446e-16;0;9.506704e-18;0;0;0;0;2.224509e-16;-4.062804e-19;1.114286e-16;45;0;1.485714e-16;1.484362e-16;2.220446e-16;1.901341e-17;0;0;-1.901341e-17;3.52653;2.220446e-16;-2.220446e-16;0
-8.599433;14.76272;3.845456;0;0;0;0;0;0;-6.791596e-19;0;0;0;0;6.791596e-19;-6.791596e-19;6.791596e-19;45;0;9.055462e-19;7.84226e-19;0;-1.358319e-18;0;0;1.358319e-18;3.844904;0;0;0
-6.986447;14.76272;4.156901;0;0;0;0;0;0;1.086787e-17;0;0;0;0;1.086787e-17;-1.086787e-17;1.086787e-17;45;0;1.44905e-17;1.254914e-17;0;2.173575e-17;0;0;-2.173575e-17;4.14328;0;0;0
-5.373461;14.76272;4.423737;0;0;0;0;0;0;0;0;0;0;0;0;0;0;45;0;0;0;0;0;0;0;0;4.405;0;0;0
-3.760475;14.76272;4.626617;0;0;0;0;0;0;0;0;0;0;0;0;0;0;45;0;0;0;0;0;0;0;0;4.607372;0;0;0
-2.147489;14.76272;4.765498;0;0;0;0;-1.110223e-16;0;3.393744e-19;0;0;0;0;1.037395e-21;-1.110233e-16;5.551219e-17;45;0;7.401625e-17;7.40159e-17;-1.110223e-16;6.787489e-19;0;0;-6.787489e-19;4.741802;-1.110223e-16;1.110223e-16;0
-0.534503;14.76272;4.831509;0;0;0;0;-1.110223e-16;0;1.102741e-17;0;0;0;0;1.084712e-18;-1.12107e-16;5.659586e-17;45;0;7.546115e-17;7.510219e-17;-1.110223e-16;2.205483e-17;0;0;-2.205483e-17;4.815352;-1.110223e-16;1.110223e-16;0
1.078483;14.76272;4.851578;0;0;0;0;-1.110223e-16;-1.110223e-16;2.207164e-19;0;0;0;0;-1.108016e-16;-1.11243e-16;2.207164e-19;45;0;2.942886e-19;7.401531e-17;-1.110223e-16;1.696529e-19;2.717799e-19;-1.110223e-16;1.02127e-19;4.859126;-2.220446e-16;2.220446e-16;0
2.691469;14.76272;4.900954;0;0;0;0;0;0;0;0;0;0;0;0;0;0;45;0;0;0;0;0;0;0;0;4.889732;0;0;0
4.304455;14.76272;4.92497;0;0;0;0;-1.110223e-16;2.220446e-16;-1.083706e-17;0;0;0;0;2.223968e-16;-1.113745e-16;1.668857e-16;45;0;2.225143e-16;1.962243e-16;-1.110223e-16;-2.181003e-17;1.359109e-19;2.220446e-16;2.194594e-17;4.894068;1.110223e-16;-1.110223e-16;0
5.917441;14.76272;4.860115;0;0;0;0;-1.110223e-16;-1.110223e-16;-6.108709e-19;0;0;0;0;-1.104114e-16;-1.116332e-16;6.108709e-19;45;0;8.144946e-19;7.401823e-17;-1.110223e-16;-6.787569e-19;-5.42985e-19;-1.110223e-16;1.35772e-19;4.849047;-2.220446e-16;2.220446e-16;0
7.530427;14.76272;4.757424;0;0;0;0;0;0;0;0;0;0;0;0;0;0;45;0;0;0;0;0;0;0;0;4.746617;0;0;0
9.143413;14.76272;4.612566;0;0;0;0;0;0;1.085419e-17;0;0;0;0;1.085419e-17;-1.085419e-17;1.085419e-17;45;0;1.447225e-17;1.253334e-17;0;2.170838e-17;0;0;-2.170838e-17;4.599477;0;0;0
10.756399;14.76272;4.422465;0;0;0;0;0;2.220446e-16;1.193276e-17;0;0;0;0;2.22684e-16;-6.394294e-19;1.116617e-16;45;0;1.488823e-16;1.486696e-16;0;2.170972e-17;2.155801e-18;2.220446e-16;-1.955392e-17;4.407444;2.220446e-16;-2.220446e-16;0
12.369385;14.76272;4.189835;0;0;0;0;0;-1.110223e-16;-1.074057e-18;0;0;0;0;1.038972e-20;-1.110327e-16;5.552154e-17;45;0;7.402872e-17;7.402526e-17;0;0;-2.148114e-18;-1.110223e-16;-2.148114e-18;4.173171;-1.110223e-16;1.110223e-16;0
13.982371;14.76272;3.915575;0;0;0;0;0;0;2.172236e-17;0;0;0;0;2.172236e-17;-2.172236e-17;2.172236e-17;45;0;2.896314e-17;2.508282e-17;0;4.344471e-17;0;0;-4.344471e-17;3.895515;0;0;0
15.595357;14.76272;3.589501;0;0;0;0;0;0;-8.717117e-23;0;0;0;0;8.717117e-23;-8.717117e-23;8.717117e-23;45;0;1.162282e-22;1.006566e-22;0;-1.743423e-22;0;0;1.743423e-22;3.572218;0;0;0
17.208343;14.76272;3.216633;0;0;0;0;-1.110223e-16;2.220446e-16;1.161639e-17;0;0;0;0;2.224492e-16;-1.11427e-16;1.669381e-16;45;0;2.225841e-16;1.962838e-16;-1.110223e-16;1.900871e-17;4.224074e-18;2.220446e-16;-1.478463e-17;3.200798;1.110223e-16;-1.110223e-16;0
18.821329;14.76272;2.799373;0;0;0;0;2.220446e-16;0;-9.502708e-18;0;0;0;0;2.224505e-16;-4.059395e-19;1.114282e-16;45;0;1.48571e-16;1.484359e-16;2.220446e-16;-1.900542e-17;0;0;1.900542e-17;2.783246;2.220446e-16;-2.220446e-16;0
20.434315;14.76272;2.337554;0;0;0;0;0;2.220446e-16;-1.827824e-17;0;0;0;0;2.235392e-16;-1.494567e-18;1.125169e-16;45;0;1.500225e-16;1.495268e-16;0;-4.071767e-17;4.161183e-18;2.220446e-16;4.487886e-17;2.317564;2.220446e-16;-2.220446e-16;0
22.047301;14.76272;1.821418;0;0;0;0;2.220446e-16;0;1.221559e-17;0;0;0;0;2.227146e-16;-6.700083e-19;1.116923e-16;45;0;1.489231e-16;1.487002e-16;2.220446e-16;2.443118e-17;0;0;-2.443118e-17;1.802056;2.220446e-16;-2.220446e-16;0
23.660287;14.76272;1.254029;0;0;0;0;0;0;1.086121e-17;0;0;0;0;1.086121e-17;-1.086121e-17;1.086121e-17;45;0;1.448161e-17;1.254144e-17;0;2.172242e-17;0;0;-2.172242e-17;1.235808;0;0;0
25.273273;14.76272;0.639104;0;0;0;0;2.220446e-16;0;-1.799254e-22;0;0;0;0;2.220446e-16;-1.457914e-28;1.110223e-16;45;0;1.480297e-16;1.480297e-16;2.220446e-16;-3.598509e-22;0;0;3.598509e-22;0.619086;2.220446e-16;-2.220446e-16;0
26.886259;14.76272;-0.029069;0;0;0;0;0;0;1.086621e-17;0;0;0;0;1.086621e-17;-1.086621e-17;1.086621e-17;45;0;1.448828e-17;1.254722e-17;0;2.173242e-17;0;0;-2.173242e-17;-0.04929;0;0;0
28.499246;14.76272;-0.7516;0;0;0;0;0;0;-1.086747e-17;0;0;0;0;1.086747e-17;-1.086747e-17;1.086747e-17;45;0;1.448996e-17;1.254868e-17;0;-2.173494e-17;0;0;2.173494e-17;-0.771733;0;0;0
30.112232;14.76272;-1.529044;0;0;0;0;0;0;1.086987e-17;0;0;0;0;1.086987e-17;-1.086987e-17;1.086987e-17;45;0;1.449316e-17;1.255145e-17;0;2.173974e-17;0;0;-2.173974e-17;-1.555571;0;0;0
31.725218;14.76272;-2.382059;0;0;0;0;0;0;1.08729e-17;0;0;0;0;1.08729e-17;-1.08729e-17;1.08729e-17;45;0;1.449719e-17;1.255494e-17;0;2.174579e-17;0;0;-2.174579e-17;-2.392646;0;0;0
33.338204;14.76272;-3.264919;0;0;0;0;-2.220446e-16;0;-4.759582e-18;0;0;0;0;1.01976e-19;-2.221466e-16;1.111243e-16;45;0;1.481657e-16;1.481317e-16;-2.220446e-16;-9.519164e-18;0;0;9.519164e-18;-3.264671;-2.220446e-16;2.220446e-16;0
-42.47214;13.149734;-14.454586;0;0;0;0;-1.110223e-16;0;7.866372e-18;0;0;0;0;5.545933e-19;-1.115769e-16;5.606575e-17;45;0;7.475432e-17;7.457015e-17;-1.110223e-16;1.573274e-17;0;0;-1.573274e-17;-14.489151;-1.110223e-16;1.110223e-16;0
-40.859154;13.149734;-12.80517;0;0;0;0;2.220446e-16;0;1.906569e-17;0;0;0;0;2.236698e-16;-1.625166e-18;1.126475e-16;45;0;1.501966e-16;1.496578e-16;2.220446e-16;3.813139e-17;0;0;-3.813139e-17;-12.842932;2.220446e-16;-2.220446e-16;0
-39.246168;13.149734;-11.268202;0;0;0;0;0;2.220446e-16;-3.199012e-18;0;0;0;0;2.220907e-16;-4.607884e-20;1.110684e-16;45;0;1.480912e-16;1.480758e-16;0;0;-6.398025e-18;2.220446e-16;-6.398025e-18;-11.304116;2.220446e-16;-2.220446e-16;0
-37.633182;13.149734;-9.841942;0;0;0;0;0;2.220446e-16;-3.298838e-18;0;0;0;0;2.220936e-16;-4.899885e-20;1.110713e-16;45;0;1.480951e-16;1.480787e-16;0;0;-6.597676e-18;2.220446e-16;-6.597676e-18;-9.868109;2.220446e-16;-2.220446e-16;0
-36.020196;13.149734;-8.504062;0;0;0;0;2.220446e-16;0;-2.721758e-18;0;0;0;0;2.22078e-16;-3.335749e-20;1.110557e-16;45;0;1.480742e-16;1.480631e-16;2.220446e-16;-5.443515e-18;0;0;5.443515e-18;-8.531246;2.220446e-16;-2.220446e-16;0
-34.40721;13.149734;-7.262681;0;0;0;0;0;-1.110223e-16;-3.091952e-17;0;0;0;0;8.03021e-18;-1.190525e-16;6.354136e-17;45;0;8.472182e-17;8.217597e-17;0;-6.532801e-17;3.488967e-18;-1.110223e-16;6.881697e-17;-7.285797;-1.110223e-16;1.110223e-16;0
-32.794224;13.149734;-6.106656;0;0;0;0;2.220446e-16;0;-2.449438e-17;0;0;0;0;2.247146e-16;-2.669941e-18;1.136922e-16;45;0;1.515897e-16;1.507076e-16;2.220446e-16;-4.898876e-17;0;0;4.898876e-17;-6.129437;2.220446e-16;-2.220446e-16;0
-31.181238;13.149734;-5.032192;0;0;0;0;0;-1.110223e-16;1.271118e-17;0;0;0;0;1.436737e-18;-1.12459e-16;5.694788e-17;45;0;7.593051e-17;7.545616e-17;0;2.176709e-17;3.655261e-18;-1.110223e-16;-1.811183e-17;-5.0519;-1.110223e-16;1.110223e-16;0
-29.568251;13.149734;-4.024879;0;0;0;0;0;0;1.088074e-17;0;0;0;0;1.088074e-17;-1.088074e-17;1.088074e-17;45;0;1.450766e-17;1.2564e-17;0;2.176148e-17;0;0;-2.176148e-17;-4.051019;0;0;0
-27.955265;13.149734;-3.098065;0;0;0;0;0;2.220446e-16;8.978255e-18;0;0;0;0;2.224071e-16;-3.624393e-19;1.113847e-16;45;0;1.48513e-16;1.483923e-16;0;2.175956e-17;-3.803048e-18;2.220446e-16;-2.556261e-17;-3.120139;2.220446e-16;-2.220446e-16;0
-26.342279;13.149734;-2.240498;0;0;0;0;2.220446e-16;-1.110223e-16;-7.895059e-19;0;0;0;0;2.220465e-16;-1.110242e-16;1.665353e-16;45;0;2.220471e-16;1.958271e-16;2.220446e-16;-5.439855e-18;3.860844e-18;-1.110223e-16;9.300699e-18;-2.253344;1.110223e-16;-1.110223e-16;0
-24.729293;13.149734;-1.430959;0;0;0;0;0;2.220446e-16;8.92272e-18;0;0;0;0;2.224026e-16;-3.579766e-19;1.113803e-16;45;0;1.48507e-16;1.483879e-16;0;2.175832e-17;-3.912886e-18;2.220446e-16;-2.567121e-17;-1.445079;2.220446e-16;-2.220446e-16;0
-23.116307;13.149734;-0.678328;0;0;0;0;0;-1.110223e-16;1.982199e-18;0;0;0;0;3.537904e-20;-1.110577e-16;5.554653e-17;45;0;7.406204e-17;7.405025e-17;0;0;3.964398e-18;-1.110223e-16;3.964398e-18;-0.690253;-1.110223e-16;1.110223e-16;0
-21.503321;13.149734;0.023977;0;0;0;0;0;2.220446e-16;8.870096e-18;0;0;0;0;2.223984e-16;-3.537733e-19;1.113761e-16;45;0;1.485014e-16;1.483837e-16;0;2.174639e-17;-4.006203e-18;2.220446e-16;-2.57526e-17;0.013852;2.220446e-16;-2.220446e-16;0
-19.890335;13.149734;0.684926;0;0;0;0;0;-1.110223e-16;3.464167e-17;0;0;0;0;9.922272e-18;-1.209446e-16;6.543342e-17;45;0;8.724457e-17;8.41324e-17;0;6.522927e-17;4.054063e-18;-1.110223e-16;-6.11752e-17;0.664324;-1.110223e-16;1.110223e-16;0
-18.277349;13.149734;1.27614;0;0;0;0;0;0;3.125029e-17;0;0;0;0;3.125029e-17;-3.125029e-17;3.125029e-17;45;0;4.166706e-17;3.608473e-17;0;6.250059e-17;0;0;-6.250059e-17;1.255944;0;0;0
-16.664363;13.149734;1.799362;0;0;0;0;-1.110223e-16;0;1.358388e-18;0;0;0;0;1.661776e-20;-1.110389e-16;5.552777e-17;45;0;7.403703e-17;7.403149e-17;-1.110223e-16;2.716776e-18;0;0;-2.716776e-18;1.781252;-1.110223e-16;1.110223e-16;0
-15.051377;13.149734;2.259149;0;0;0;0;2.220446e-16;2.220446e-16;-3.45352e-18;0;0;0;0;2.254981e-16;2.185911e-16;3.45352e-18;45;0;4.604694e-18;1.480834e-16;2.220446e-16;-2.71725e-18;-4.189791e-18;2.220446e-16;-1.472541e-18;2.255055;4.440892e-16;-4.440892e-16;0
-13.438391;13.149734;2.696807;0;0;0;0;-1.110223e-16;0;2.309528e-17;0;0;0;0;4.612719e-18;-1.15635e-16;6.012387e-17;45;0;8.016516e-17;7.867268e-17;-1.110223e-16;4.619055e-17;0;0;-4.619055e-17;2.687013;-1.110223e-16;1.110223e-16;0
-11.825405;13.149734;3.098931;0;0;0;0;0;-1.110223e-16;1.060569e-18;0;0;0;0;1.013043e-20;-1.110324e-16;5.552128e-17;45;0;7.402838e-17;7.4025e-17;0;0;2.121138e-18;-1.110223e-16;2.121138e-18;3.074562;-1.110223e-16;1.110223e-16;0
-10.212419;13.149734;3.429008;0;0;0;0;0;-1.110223e-16;1.06634e-18;0;0;0;0;1.024097e-20;-1.110325e-16;5.55214e-17;45;0;7.402852e-17;7.402511e-17;0;0;2.132679e-18;-1.110223e-16;2.132679e-18;3.421216;-1.110223e-16;1.110223e-16;0
-8.599433;13.149734;3.742956;0;0;0;0;0;0;0;0;0;0;0;0;0;0;45;0;0;0;0;0;0;0;0;3.741715;0;0;0
-6.986447;13.149734;4.062112;0;0;0;0;2.220446e-16;2.220446e-16;-1.748575e-18;0;0;0;0;2.237932e-16;2.20296e-16;1.748575e-18;45;0;2.331433e-18;1.480435e-16;2.220446e-16;-1.358114e-18;-2.139037e-18;2.220446e-16;-7.809231e-19;4.043203;4.440892e-16;-4.440892e-16;0
-5.373461;13.149734;4.333405;0;0;0;0;0;0;0;0;0;0;0;0;0;0;45;0;0;0;0;0;0;0;0;4.306268;0;0;0
-3.760475;13.149734;4.533367;0;0;0;0;-1.110223e-16;0;-1.086403e-17;0;0;0;0;1.053106e-18;-1.120754e-16;5.656426e-17;45;0;7.541901e-17;7.507044e-17;-1.110223e-16;-2.172807e-17;0;0;2.172807e-17;4.506438;-1.110223e-16;1.110223e-16;0
-2.147489;13.149734;4.663893;0;0;0;0;0;-1.110223e-16;-1.0587e-17;0;0;0;0;1.00055e-18;-1.120228e-16;5.65117e-17;45;0;7.534893e-17;7.501765e-17;0;-2.171671e-17;5.427201e-19;-1.110223e-16;2.225943e-17;4.636801;-1.110223e-16;1.110223e-16;0
-0.534503;13.149734;4.72253;0;0;0;0;0;0;0;0;0;0;0;0;0;0;45;0;0;0;0;0;0;0;0;4.707206;0;0;0
1.078483;13.149734;4.739906;0;0;0;0;0;2.220446e-16;-1.358851e-19;0;0;0;0;2.220447e-16;-8.315788e-23;1.110224e-16;45;0;1.480298e-16;1.480298e-16;0;0;-2.717702e-19;2.220446e-16;-2.717702e-19;4.751586;2.220446e-16;-2.220446e-16;0
2.691469;13.149734;4.796083;0;0;0;0;2.220446e-16;0;-1.102503e-17;0;0;0;0;2.225907e-16;-5.460758e-19;1.115684e-16;45;0;1.487578e-16;1.485761e-16;2.220446e-16;-2.205007e-17;0;0;2.205007e-17;4.783806;2.220446e-16;-2.220446e-16;0
4.304455;13.149734;4.820294;0;0;0;0;-1.110223e-16;2.220446e-16;1.0926e-17;0;0;0;0;2.224026e-16;-1.113803e-16;1.668915e-16;45;0;2.22522e-16;1.962309e-16;-1.110223e-16;2.171609e-17;1.359124e-19;2.220446e-16;-2.158017e-17;4.790741;1.110223e-16;-1.110223e-16;0
5.917441;13.149734;4.760902;0;0;0;0;0;-1.110223e-16;-2.715022e-19;0;0;0;0;6.639477e-22;-1.11023e-16;5.551181e-17;45;0;7.401575e-17;7.401553e-17;0;0;-5.430044e-19;-1.110223e-16;-5.430044e-19;4.745995;-1.110223e-16;1.110223e-16;0
7.530427;13.149734;4.656073;0;0;0;0;2.220446e-16;-1.110223e-16;6.850925e-20;0;0;0;0;2.220446e-16;-1.110223e-16;1.665335e-16;45;0;2.220446e-16;1.95825e-16;2.220446e-16;6.790182e-19;-5.419997e-19;-1.110223e-16;-1.221018e-18;4.642966;1.110223e-16;-1.110223e-16;0
9.143413;13.149734;4.503911;0;0;0;0;0;0;2.172563e-17;0;0;0;0;2.172563e-17;-2.172563e-17;2.172563e-17;45;0;2.896751e-17;2.50866e-17;0;4.345126e-17;0;0;-4.345126e-17;4.493175;0;0;0
10.756399;13.149734;4.307293;0;0;0;0;-1.110223e-16;0;1.08586e-17;0;0;0;0;1.052061e-18;-1.120744e-16;5.656321e-17;45;0;7.541762e-17;7.506939e-17;-1.110223e-16;2.171719e-17;0;0;-2.171719e-17;4.299502;-1.110223e-16;1.110223e-16;0
12.369385;13.149734;4.076383;0;0;0;0;0;0;1.085693e-17;0;0;0;0;1.085693e-17;-1.085693e-17;1.085693e-17;45;0;1.447591e-17;1.25365e-17;0;2.171386e-17;0;0;-2.171386e-17;4.064934;0;0;0
13.982371;13.149734;3.804968;0;0;0;0;-1.110223e-16;2.220446e-16;-1.1146e-17;0;0;0;0;2.224172e-16;-1.113949e-16;1.66906e-16;45;0;2.225414e-16;1.962474e-16;-1.110223e-16;-2.443035e-17;2.138357e-18;2.220446e-16;2.656871e-17;3.788247;1.110223e-16;-1.110223e-16;0
15.595357;13.149734;3.481882;0;0;0;0;0;0;-1.086008e-17;0;0;0;0;1.086008e-17;-1.086008e-17;1.086008e-17;45;0;1.448011e-17;1.254014e-17;0;-2.172016e-17;0;0;2.172016e-17;3.465006;0;0;0
17.208343;13.149734;3.10851;0;0;0;0;0;-1.110223e-16;-1.055689e-18;0;0;0;0;1.003742e-20;-1.110323e-16;5.552119e-17;45;0;7.402825e-17;7.402491e-17;0;0;-2.111377e-18;-1.110223e-16;-2.111377e-18;3.092493;-1.110223e-16;1.110223e-16;0
18.821329;13.149734;2.686667;0;0;0;0;0;2.220446e-16;2.09624e-18;0;0;0;0;2.220644e-16;-1.978806e-20;1.110421e-16;45;0;1.480561e-16;1.480495e-16;0;1.489584e-22;4.192332e-18;2.220446e-16;4.192183e-18;2.672035;2.220446e-16;-2.220446e-16;0
20.434315;13.149734;2.217171;0;0;0;0;-1.110223e-16;2.220446e-16;-2.099594e-17;0;0;0;0;2.233629e-16;-1.123406e-16;1.678518e-16;45;0;2.238024e-16;1.9732e-16;-1.110223e-16;-4.615069e-17;4.158822e-18;2.220446e-16;5.030951e-17;2.203571;1.110223e-16;-1.110223e-16;0
22.047301;13.149734;1.699341;0;0;0;0;0;0;2.036227e-17;0;0;0;0;2.036227e-17;-2.036227e-17;2.036227e-17;45;0;2.714969e-17;2.351232e-17;0;4.072454e-17;0;0;-4.072454e-17;1.686879;0;0;0
23.660287;13.149734;1.13378;0;0;0;0;0;2.220446e-16;2.376716e-17;0;0;0;0;2.245601e-16;-2.515486e-18;1.135378e-16;45;0;1.513837e-16;1.505522e-16;0;4.344994e-17;4.084368e-18;2.220446e-16;-3.936557e-17;1.121726;2.220446e-16;-2.220446e-16;0
25.273273;13.149734;0.52162;0;0;0;0;0;0;-1.086505e-17;0;0;0;0;1.086505e-17;-1.086505e-17;1.086505e-17;45;0;1.448673e-17;1.254587e-17;0;-2.173009e-17;0;0;2.173009e-17;0.505963;0;0;0
26.886259;13.149734;-0.146669;0;0;0;0;0;0;1.086654e-17;0;0;0;0;1.086654e-17;-1.086654e-17;1.086654e-17;45;0;1.448872e-17;1.25476e-17;0;2.173308e-17;0;0;-2.173308e-17;-0.162689;0;0;0
28.499246;13.149734;-0.870091;0;0;0;0;0;-1.110223e-16;-1.283797e-17;0;0;0;0;1.465172e-18;-1.124875e-16;5.697633e-17;45;0;7.596843e-17;7.548478e-17;0;-2.173469e-17;-3.941254e-18;-1.110223e-16;1.779343e-17;-0.886604;-1.110223e-16;1.110223e-16;0
30.112232;13.149734;-1.647961;0;0;0;0;-1.110223e-16;2.220446e-16;1.941163e-18;0;0;0;0;2.220559e-16;-1.110336e-16;1.665448e-16;45;0;2.220597e-16;1.958378e-16;-1.110223e-16;6.969642e-22;3.88163e-18;2.220446e-16;3.880932e-18;-1.670649;1.110223e-16;-1.110223e-16;0
31.725218;13.149734;-2.4955;0;0;0;0;-1.110223e-16;-1.110223e-16;-1.915204e-18;0;0;0;0;-1.091071e-16;-1.129375e-16;1.915204e-18;45;0;2.553605e-18;7.40479e-17;-1.110223e-16;1.793048e-22;-3.830587e-18;-1.110223e-16;-3.830766e-18;-2.507737;-2.220446e-16;2.220446e-16;0
33.338204;13.149734;-3.376997;0;0;0;0;0;2.220446e-16;1.862684e-17;0;0;0;0;2.235963e-16;-1.551722e-18;1.12574e-16;45;0;1.500987e-16;1.495841e-16;0;2.106989e-17;1.61838e-17;2.220446e-16;-4.886095e-18;-3.379699;2.220446e-16;-2.220446e-16;0
-44.085126;11.536748;-16.359737;0;0;0;0;2.220446e-16;-2.220446e-16;-3.996935e-17;0;0;0;0;2.256133e-16;-2.256133e-16;2.256133e-16;45;0;3.008177e-16;2.605158e-16;2.220446e-16;-1.250936e-16;4.515491e-17;-2.220446e-16;1.702485e-16;-16.35939;0;0;0
-42.47214;11.536748;-14.561876;0;0;0;0;2.220446e-16;2.220446e-16;-3.869667e-17;0;0;0;0;2.607413e-16;1.833479e-16;3.869667e-17;45;0;5.159556e-17;1.546266e-16;2.220446e-16;-5.222961e-17;-2.516373e-17;2.220446e-16;2.706588e-17;-14.604838;4.440892e-16;-4.440892e-16;0
-40.859154;11.536748;-12.904497;0;0;0;0;0;-1.110223e-16;-9.348822e-18;0;0;0;0;7.817291e-19;-1.11804e-16;5.629288e-17;45;0;7.505717e-17;7.479796e-17;0;-2.178714e-17;3.089496e-18;-1.110223e-16;2.487663e-17;-12.946357;-1.110223e-16;1.110223e-16;0
-39.246168;11.536748;-11.368244;0;0;0;0;-2.220446e-16;0;5.445698e-18;0;0;0;0;1.334768e-19;-2.221781e-16;1.111558e-16;45;0;1.482077e-16;1.481632e-16;-2.220446e-16;1.08914e-17;0;0;-1.08914e-17;-11.406357;-2.220446e-16;2.220446e-16;0
-37.633182;11.536748;-9.940018;0;0;0;0;0;-1.110223e-16;4.521434e-17;0;0;0;0;1.608371e-17;-1.27106e-16;7.159486e-17;45;0;9.545982e-17;9.057584e-17;0;8.712978e-17;3.298895e-18;-1.110223e-16;-8.383089e-17;-9.971076;-1.110223e-16;1.110223e-16;0
-36.020196;11.536748;-8.599211;0;0;0;0;2.220446e-16;2.220446e-16;4.775511e-18;0;0;0;0;2.268201e-16;2.172691e-16;4.775511e-18;45;0;6.367347e-18;1.481324e-16;2.220446e-16;1.63362e-17;-6.785174e-18;2.220446e-16;-2.312137e-17;-8.633553;4.440892e-16;-4.440892e-16;0
-34.40721;11.536748;-7.354911;0;0;0;0;0;2.220446e-16;-1.263209e-17;0;0;0;0;2.227609e-16;-7.16327e-19;1.117386e-16;45;0;1.489848e-16;1.487466e-16;0;-2.177918e-17;-3.484993e-18;2.220446e-16;1.829419e-17;-7.384981;2.220446e-16;-2.220446e-16;0
-32.794224;11.536748;-6.195053;0;0;0;0;-1.110223e-16;0;2.722205e-18;0;0;0;0;6.670685e-20;-1.11089e-16;5.557786e-17;45;0;7.410381e-17;7.408159e-17;-1.110223e-16;5.444409e-18;0;0;-5.444409e-18;-6.227506;-1.110223e-16;1.110223e-16;0
-31.181238;11.536748;-5.130351;0;0;0;0;-1.110223e-16;0;-8.164027e-18;0;0;0;0;5.971302e-19;-1.116194e-16;5.610828e-17;45;0;7.481104e-17;7.46128e-17;-1.110223e-16;-1.632805e-17;0;0;1.632805e-17;-5.151918;-1.110223e-16;1.110223e-16;0
-29.568251;11.536748;-4.131422;0;0;0;0;0;-1.110223e-16;-1.989715e-17;0;0;0;0;3.458199e-18;-1.144805e-16;5.896935e-17;45;0;7.86258e-17;7.749879e-17;0;-4.352526e-17;3.730966e-18;-1.110223e-16;4.725622e-17;-4.153449;-1.110223e-16;1.110223e-16;0
-27.955265;11.536748;-3.199982;0;0;0;0;0;2.220446e-16;-1.899222e-18;0;0;0;0;2.220609e-16;-1.62435e-20;1.110385e-16;45;0;1.480514e-16;1.48046e-16;0;0;-3.798444e-18;2.220446e-16;-3.798444e-18;-3.221851;2.220446e-16;-2.220446e-16;0
-26.342279;11.536748;-2.333233;0;0;0;0;0;-1.110223e-16;2.369089e-17;0;0;0;0;4.844015e-18;-1.158663e-16;6.035517e-17;45;0;8.047356e-17;7.890846e-17;0;4.352517e-17;3.856611e-18;-1.110223e-16;-3.966855e-17;-2.352241;-1.110223e-16;1.110223e-16;0
-24.729293;11.536748;-1.51805;0;0;0;0;-1.110223e-16;0;-1.904186e-17;0;0;0;0;3.175138e-18;-1.141974e-16;5.868629e-17;45;0;7.824839e-17;7.721177e-17;-1.110223e-16;-3.808373e-17;0;0;3.808373e-17;-1.543587;-1.110223e-16;1.110223e-16;0
-23.116307;11.536748;-0.771707;0;0;0;0;2.220446e-16;-1.110223e-16;-7.347762e-19;0;0;0;0;2.220462e-16;-1.110239e-16;1.665351e-16;45;0;2.220468e-16;1.958268e-16;2.220446e-16;-5.438323e-18;3.96877e-18;-1.110223e-16;9.407092e-18;-0.791076;1.110223e-16;-1.110223e-16;0
-21.503321;11.536748;-0.074762;0;0;0;0;-1.110223e-16;0;1.359233e-17;0;0;0;0;1.639871e-18;-1.126622e-16;5.715102e-17;45;0;7.620136e-17;7.566066e-17;-1.110223e-16;2.718466e-17;0;0;-2.718466e-17;-0.089837;-1.110223e-16;1.110223e-16;0
-19.890335;11.536748;0.58547;0;0;0;0;0;0;1.087136e-17;0;0;0;0;1.087136e-17;-1.087136e-17;1.087136e-17;45;0;1.449515e-17;1.255317e-17;0;2.174273e-17;0;0;-2.174273e-17;0.55982;0;0;0
-18.277349;11.536748;1.176046;0;0;0;0;-1.110223e-16;0;1.358804e-18;0;0;0;0;1.662793e-20;-1.110389e-16;5.552778e-17;45;0;7.403704e-17;7.40315e-17;-1.110223e-16;2.717607e-18;0;0;-2.717607e-18;1.152119;-1.110223e-16;1.110223e-16;0
-16.664363;11.536748;1.700258;0;0;0;0;0;-1.110223e-16;1.039477e-18;0;0;0;0;9.731544e-21;-1.11032e-16;5.552089e-17;45;0;7.402784e-17;7.40246e-17;0;0;2.078955e-18;-1.110223e-16;2.078955e-18;1.678998;-1.110223e-16;1.110223e-16;0
-15.051377;11.536748;2.16558;0;0;0;0;0;0;-1.086991e-17;0;0;0;0;1.086991e-17;-1.086991e-17;1.086991e-17;45;0;1.449322e-17;1.255149e-17;0;-2.173982e-17;0;0;2.173982e-17;2.153533;0;0;0
-13.438391;11.536748;2.602417;0;0;0;0;0;0;-1.086696e-17;0;0;0;0;1.086696e-17;-1.086696e-17;1.086696e-17;45;0;1.448928e-17;1.254809e-17;0;-2.173393e-17;0;0;2.173393e-17;2.583848;0;0;0
-11.825405;11.536748;2.993218;0;0;0;0;2.220446e-16;0;-1.22175e-17;0;0;0;0;2.227148e-16;-6.702169e-19;1.116925e-16;45;0;1.489234e-16;1.487005e-16;2.220446e-16;-2.443499e-17;0;0;2.443499e-17;2.967507;2.220446e-16;-2.220446e-16;0
-10.212419;11.536748;3.313425;0;0;0;0;0;-1.110223e-16;1.066475e-18;0;0;0;0;1.024357e-20;-1.110325e-16;5.55214e-17;45;0;7.402853e-17;7.402511e-17;0;-8.309121e-25;2.132951e-18;-1.110223e-16;2.132952e-18;3.311992;-1.110223e-16;1.110223e-16;0
-8.599433;11.536748;3.630582;0;0;0;0;0;0;1.085855e-17;0;0;0;0;1.085855e-17;-1.085855e-17;1.085855e-17;45;0;1.447806e-17;1.253837e-17;0;2.17171e-17;0;0;-2.17171e-17;3.634899;0;0;0
-6.986447;11.536748;3.960286;0;0;0;0;0;2.220446e-16;-1.260985e-17;0;0;0;0;2.227584e-16;-7.138151e-19;1.117361e-16;45;0;1.489815e-16;1.487441e-16;0;-2.308181e-17;-2.137891e-18;2.220446e-16;2.094392e-17;3.940505;2.220446e-16;-2.220446e-16;0
-5.373461;11.536748;4.233393;0;0;0;0;0;0;-1.086038e-17;0;0;0;0;1.086038e-17;-1.086038e-17;1.086038e-17;45;0;1.44805e-17;1.254048e-17;0;-2.172075e-17;0;0;2.172075e-17;4.204393;0;0;0
-3.760475;11.536748;4.426599;0;0;0;0;0;0;-1.085465e-17;0;0;0;0;1.085465e-17;-1.085465e-17;1.085465e-17;45;0;1.447287e-17;1.253387e-17;0;-2.17093e-17;0;0;2.17093e-17;4.40077;0;0;0
-2.147489;11.536748;4.551438;0;0;0;0;-1.110223e-16;0;3.38984e-19;0;0;0;0;1.035009e-21;-1.110233e-16;5.551218e-17;45;0;7.401625e-17;7.40159e-17;-1.110223e-16;6.779681e-19;0;0;-6.779681e-19;4.526476;-1.110223e-16;1.110223e-16;0
-0.534503;11.536748;4.609758;0;0;0;0;2.220446e-16;0;-1.101975e-17;0;0;0;0;2.225901e-16;-5.455535e-19;1.115679e-16;45;0;1.487571e-16;1.485756e-16;2.220446e-16;-2.20395e-17;0;0;2.20395e-17;4.595163;2.220446e-16;-2.220446e-16;0
1.078483;11.536748;4.628743;0;0;0;0;0;-1.110223e-16;-1.071801e-17;0;0;0;0;1.025241e-18;-1.120475e-16;5.653639e-17;45;0;7.538186e-17;7.504244e-17;0;-2.170778e-17;2.717616e-19;-1.110223e-16;2.197954e-17;4.641116;-1.110223e-16;1.110223e-16;0
2.691469;11.536748;4.683212;0;0;0;0;2.220446e-16;0;-1.696199e-19;0;0;0;0;2.220447e-16;-1.295725e-22;1.110224e-16;45;0;1.480299e-16;1.480299e-16;2.220446e-16;-3.392397e-19;0;0;3.392397e-19;4.675375;2.220446e-16;-2.220446e-16;0
4.304455;11.536748;4.70851;0;0;0;0;2.220446e-16;-1.110223e-16;-1.084871e-17;0;0;0;0;2.223976e-16;-1.113753e-16;1.668864e-16;45;0;2.225153e-16;1.962252e-16;2.220446e-16;-2.162946e-17;-6.79578e-20;-1.110223e-16;2.15615e-17;4.685408;1.110223e-16;-1.110223e-16;0
5.917441;11.536748;4.66163;0;0;0;0;-1.110223e-16;0;-3.393798e-19;0;0;0;0;1.037428e-21;-1.110233e-16;5.551219e-17;45;0;7.401625e-17;7.40159e-17;-1.110223e-16;-6.787596e-19;0;0;6.787596e-19;4.643016;-1.110223e-16;1.110223e-16;0
7.530427;11.536748;4.56404;0;0;0;0;-1.110223e-16;0;-1.120297e-17;0;0;0;0;1.11918e-18;-1.121415e-16;5.663033e-17;45;0;7.55071e-17;7.513683e-17;-1.110223e-16;-2.240593e-17;0;0;2.240593e-17;4.54134;-1.110223e-16;1.110223e-16;0
9.143413;11.536748;4.410039;0;0;0;0;0;0;-1.086299e-17;0;0;0;0;1.086299e-17;-1.086299e-17;1.086299e-17;45;0;1.448399e-17;1.25435e-17;0;-2.172598e-17;0;0;2.172598e-17;4.388911;0;0;0
10.756399;11.536748;4.204768;0;0;0;0;0;0;-2.172024e-17;0;0;0;0;2.172024e-17;-2.172024e-17;2.172024e-17;45;0;2.896031e-17;2.508037e-17;0;-4.344047e-17;0;0;4.344047e-17;4.191548;0;0;0
12.369385;11.536748;3.968259;0;0;0;0;0;0;-1.153608e-17;0;0;0;0;1.153608e-17;-1.153608e-17;1.153608e-17;45;0;1.538145e-17;1.332072e-17;0;-2.307217e-17;0;0;2.307217e-17;3.954309;0;0;0
13.982371;11.536748;3.694862;0;0;0;0;-1.110223e-16;-1.110223e-16;8.430675e-18;0;0;0;0;-1.025916e-16;-1.19453e-16;8.430675e-18;45;0;1.12409e-17;7.465232e-17;-1.110223e-16;1.89998e-17;-2.138445e-18;-1.110223e-16;-2.113824e-17;3.677462;-2.220446e-16;2.220446e-16;0
15.595357;11.536748;3.372957;0;0;0;0;0;0;-1.085862e-17;0;0;0;0;1.085862e-17;-1.085862e-17;1.085862e-17;45;0;1.447816e-17;1.253845e-17;0;-2.171723e-17;0;0;2.171723e-17;3.354962;0;0;0
17.208343;11.536748;3.000162;0;0;0;0;2.220446e-16;0;1.357383e-18;0;0;0;0;2.220529e-16;-8.297516e-21;1.110306e-16;45;0;1.480408e-16;1.48038e-16;2.220446e-16;2.714765e-18;0;0;-2.714765e-18;2.982655;2.220446e-16;-2.220446e-16;0
18.821329;11.536748;2.576748;0;0;0;0;-1.110223e-16;0;-1.221926e-17;0;0;0;0;1.328961e-18;-1.123513e-16;5.684011e-17;45;0;7.578682e-17;7.534774e-17;-1.110223e-16;-2.443853e-17;0;0;2.443853e-17;2.560862;-1.110223e-16;1.110223e-16;0
20.434315;11.536748;2.105495;0;0;0;0;-1.110223e-16;-1.110223e-16;-2.412352e-17;0;0;0;0;-8.689878e-17;-1.351458e-16;2.412352e-17;45;0;3.21647e-17;7.908303e-17;-1.110223e-16;-4.616792e-17;-2.079122e-18;-1.110223e-16;4.40888e-17;2.091025;-2.220446e-16;2.220446e-16;0
22.047301;11.536748;1.588372;0;0;0;0;0;0;1.222377e-17;0;0;0;0;1.222377e-17;-1.222377e-17;1.222377e-17;45;0;1.629836e-17;1.41148e-17;0;2.444755e-17;0;0;-2.444755e-17;1.574403;0;0;0
23.660287;11.536748;1.024754;0;0;0;0;-1.110223e-16;0;-1.35853e-17;0;0;0;0;1.638199e-18;-1.126605e-16;5.714935e-17;45;0;7.619914e-17;7.565898e-17;-1.110223e-16;-2.71706e-17;0;0;2.71706e-17;1.010614;-1.110223e-16;1.110223e-16;0
25.273273;11.536748;0.413116;0;0;0;0;2.220446e-16;-1.110223e-16;-6.618201e-19;0;0;0;0;2.220459e-16;-1.110236e-16;1.665348e-16;45;0;2.220464e-16;1.958264e-16;2.220446e-16;2.717239e-18;-4.040879e-18;-1.110223e-16;-6.758119e-18;0.395552;1.110223e-16;-1.110223e-16;0
26.886259;11.536748;-0.257;0;0;0;0;0;0;-1.087067e-17;0;0;0;0;1.087067e-17;-1.087067e-17;1.087067e-17;45;0;1.449422e-17;1.255236e-17;0;-2.174133e-17;0;0;2.174133e-17;-0.274106;0;0;0
28.499246;11.536748;-0.983608;0;0;0;0;0;-1.110223e-16;-1.96934e-18;0;0;0;0;3.492163e-20;-1.110572e-16;5.554607e-17;45;0;7.406143e-17;7.404979e-17;0;0;-3.93868e-18;-1.110223e-16;-3.93868e-18;-1.000336;-1.110223e-16;1.110223e-16;0
30.112232;11.536748;-1.764398;0;0;0;0;0;0;0;0;0;0;0;0;0;0;45;0;0;0;0;0;0;0;0;-1.785931;0;0;0
31.725218;11.536748;-2.611576;0;0;0;0;-1.110223e-16;2.220446e-16;1.111461e-18;0;0;0;0;2.220483e-16;-1.11026e-16;1.665372e-16;45;0;2.220496e-16;1.958291e-16;-1.110223e-16;-5.434981e-18;7.657902e-18;2.220446e-16;1.309288e-17;-2.624907;1.110223e-16;-1.110223e-16;0
33.338204;11.536748;-3.49718;0;0;0;0;0;2.220446e-16;-5.961411e-18;0;0;0;0;2.222045e-16;-1.599356e-19;1.111822e-16;45;0;1.48243e-16;1.481897e-16;0;-2.80868e-17;1.616397e-17;2.220446e-16;4.425077e-17;-3.499078;2.220446e-16;-2.220446e-16;0
-44.085126;9.923762;-16.465331;0;0;0;0;0;-1.110223e-16;4.106046e-18;0;0;0;0;1.516507e-19;-1.111739e-16;5.56628e-17;45;0;7.421707e-17;7.416657e-17;0;0;8.212091e-18;-1.110223e-16;8.212091e-18;-16.46462;-1.110223e-16;1.110223e-16;0
-42.47214;9.923762;-14.667513;0;0;0;0;-2.220446e-16;0;-5.448285e-18;0;0;0;0;1.336036e-19;-2.221782e-16;1.111559e-16;45;0;1.482079e-16;1.481634e-16;-2.220446e-16;-1.089657e-17;0;0;1.089657e-17;-14.715877;-2.220446e-16;2.220446e-16;0
-40.859154;9.923762;-13.014008;0;0;0;0;-2.220446e-16;2.220446e-16;2.142012e-17;0;0;0;0;2.230754e-16;-2.230754e-16;2.230754e-16;45;0;2.974338e-16;2.575853e-16;-2.220446e-16;4.901643e-17;-6.176195e-18;2.220446e-16;-5.519262e-17;-13.052426;0;0;0
-39.246168;9.923762;-11.473119;0;0;0;0;2.220446e-16;2.220446e-16;-4.13159e-17;0;0;0;0;2.633605e-16;1.807287e-16;4.13159e-17;45;0;5.508787e-17;1.555275e-16;2.220446e-16;-7.623615e-17;-6.395655e-18;2.220446e-16;6.984049e-17;-11.51095;4.440892e-16;-4.440892e-16;0
-37.633182;9.923762;-10.042011;0;0;0;0;0;0;0;0;0;0;0;0;0;0;45;0;0;0;0;0;0;0;0;-10.075932;0;0;0
-36.020196;9.923762;-8.702876;0;0;0;0;0;0;-1.088647e-17;0;0;0;0;1.088647e-17;-1.088647e-17;1.088647e-17;45;0;1.451529e-17;1.257061e-17;0;-2.177294e-17;0;0;2.177294e-17;-8.737951;0;0;0
-34.40721;9.923762;-7.454263;0;0;0;0;0;-1.110223e-16;-9.146072e-18;0;0;0;0;7.484128e-19;-1.117707e-16;5.625956e-17;45;0;7.501275e-17;7.476453e-17;0;-2.17709e-17;3.478752e-18;-1.110223e-16;2.524965e-17;-7.486866;-1.110223e-16;1.110223e-16;0
-32.794224;9.923762;-6.285117;0;0;0;0;-1.110223e-16;-1.110223e-16;-6.376077e-18;0;0;0;0;-1.046462e-16;-1.173984e-16;6.376077e-18;45;0;8.501436e-18;7.438015e-17;-1.110223e-16;-1.63279e-17;3.575742e-18;-1.110223e-16;1.990364e-17;-6.32718;-2.220446e-16;2.220446e-16;0
-31.181238;9.923762;-5.226327;0;0;0;0;0;0;0;0;0;0;0;0;0;0;45;0;0;0;0;0;0;0;0;-5.252012;0;0;0
-29.568251;9.923762;-4.23526;0;0;0;0;-1.110223e-16;0;1.360137e-17;0;0;0;0;1.642021e-18;-1.126643e-16;5.715317e-17;45;0;7.620423e-17;7.566283e-17;-1.110223e-16;2.720273e-17;0;0;-2.720273e-17;-4.255792;-1.110223e-16;1.110223e-16;0
-27.955265;9.923762;-3.302561;0;0;0;0;-1.110223e-16;0;2.719467e-18;0;0;0;0;6.657285e-20;-1.110889e-16;5.557772e-17;45;0;7.410363e-17;7.408145e-17;-1.110223e-16;5.438935e-18;0;0;-5.438935e-18;-3.324722;-1.110223e-16;1.110223e-16;0
-26.342279;9.923762;-2.43076;0;0;0;0;0;0;0;0;0;0;0;0;0;0;45;0;0;0;0;0;0;0;0;-2.454352;0;0;0
-24.729293;9.923762;-1.616063;0;0;0;0;-1.110223e-16;2.220446e-16;8.9151e-18;0;0;0;0;2.222831e-16;-1.112608e-16;1.667719e-16;45;0;2.223626e-16;1.960953e-16;-1.110223e-16;2.174505e-17;-3.914848e-18;2.220446e-16;-2.56599e-17;-1.645832;1.110223e-16;-1.110223e-16;0
-23.116307;9.923762;-0.872683;0;0;0;0;2.220446e-16;-1.110223e-16;-3.062644e-17;0;0;0;0;2.248374e-16;-1.138151e-16;1.693262e-16;45;0;2.257683e-16;1.989926e-16;2.220446e-16;-6.522388e-17;3.970986e-18;-1.110223e-16;6.919486e-17;-0.894882;1.110223e-16;-1.110223e-16;0
-21.503321;9.923762;-0.181105;0;0;0;0;-1.110223e-16;2.220446e-16;-1.287418e-17;0;0;0;0;2.225415e-16;-1.115192e-16;1.670303e-16;45;0;2.227071e-16;1.963884e-16;-1.110223e-16;-2.173753e-17;-4.010826e-18;2.220446e-16;1.77267e-17;-0.195679;1.110223e-16;-1.110223e-16;0
-19.890335;9.923762;0.475682;0;0;0;0;0;-1.110223e-16;-8.840235e-18;0;0;0;0;6.995031e-19;-1.117218e-16;5.621065e-17;45;0;7.494754e-17;7.471547e-17;0;-2.173345e-17;4.052985e-18;-1.110223e-16;2.578644e-17;0.453615;-1.110223e-16;1.110223e-16;0
-18.277349;9.923762;1.072003;0;0;0;0;-1.110223e-16;2.220446e-16;1.017164e-17;0;0;0;0;2.22355e-16;-1.113326e-16;1.668438e-16;45;0;2.224584e-16;1.961768e-16;-1.110223e-16;2.444978e-17;-4.106494e-18;2.220446e-16;-2.855628e-17;1.047183;1.110223e-16;-1.110223e-16;0
-16.664363;9.923762;1.599181;0;0;0;0;2.220446e-16;0;-2.309179e-17;0;0;0;0;2.244206e-16;-2.376032e-18;1.133983e-16;45;0;1.511978e-16;1.50412e-16;2.220446e-16;-4.618357e-17;0;0;4.618357e-17;1.576158;2.220446e-16;-2.220446e-16;0
-15.051377;9.923762;2.063267;0;0;0;0;0;-1.110223e-16;-9.817201e-18;0;0;0;0;8.614072e-19;-1.118837e-16;5.637256e-17;45;0;7.516341e-17;7.487792e-17;0;-2.172936e-17;2.094957e-18;-1.110223e-16;2.382432e-17;2.050806;-1.110223e-16;1.110223e-16;0
-13.438391;9.923762;2.495776;0;0;0;0;-1.110223e-16;-1.110223e-16;2.411316e-18;0;0;0;0;-1.08611e-16;-1.134336e-16;2.411316e-18;45;0;3.215087e-18;7.406722e-17;-1.110223e-16;2.715006e-18;2.107625e-18;-1.110223e-16;-6.073803e-19;2.478521;-2.220446e-16;2.220446e-16;0
-11.825405;9.923762;2.879492;0;0;0;0;-1.110223e-16;2.220446e-16;3.287002e-17;0;0;0;0;2.252575e-16;-1.142352e-16;1.697464e-16;45;0;2.263285e-16;1.994693e-16;-1.110223e-16;6.786427e-17;-2.124218e-18;2.220446e-16;-6.998849e-17;2.85876;1.110223e-16;-1.110223e-16;0
-10.212419;9.923762;3.198488;0;0;0;0;-1.110223e-16;0;-9.501624e-18;0;0;0;0;8.073072e-19;-1.118296e-16;5.631846e-17;45;0;7.509128e-17;7.482363e-17;-1.110223e-16;-1.900325e-17;0;0;1.900325e-17;3.202241;-1.110223e-16;1.110223e-16;0
-8.599433;9.923762;3.521833;0;0;0;0;0;2.220446e-16;-1.065494e-18;0;0;0;0;2.220497e-16;-5.112716e-21;1.110274e-16;45;0;1.480366e-16;1.480348e-16;0;0;-2.130988e-18;2.220446e-16;-2.130988e-18;3.527536;2.220446e-16;-2.220446e-16;0
-6.986447;9.923762;3.855401;0;0;0;0;0;-1.110223e-16;1.193138e-17;0;0;0;0;1.267768e-18;-1.122901e-16;5.677892e-17;45;0;7.570522e-17;7.528619e-17;0;2.172501e-17;2.137739e-18;-1.110223e-16;-1.958727e-17;3.835427;-1.110223e-16;1.110223e-16;0
-5.373461;9.923762;4.12458;0;0;0;0;0;0;-1.451893e-22;0;0;0;0;1.451893e-22;-1.451893e-22;1.451893e-22;45;0;1.935857e-22;1.676502e-22;0;-2.903786e-22;0;0;2.903786e-22;4.098058;0;0;0
-3.760475;9.923762;4.310396;0;0;0;0;2.220446e-16;0;-6.782496e-19;0;0;0;0;2.220467e-16;-2.071738e-21;1.110244e-16;45;0;1.480325e-16;1.480318e-16;2.220446e-16;-1.356499e-18;0;0;1.356499e-18;4.290005;2.220446e-16;-2.220446e-16;0
-2.147489;9.923762;4.429856;0;0;0;0;-1.110223e-16;-1.110223e-16;6.104394e-19;0;0;0;0;-1.104119e-16;-1.116327e-16;6.104394e-19;45;0;8.139192e-19;7.401823e-17;-1.110223e-16;6.780431e-19;5.428357e-19;-1.110223e-16;-1.352073e-19;4.412125;-2.220446e-16;2.220446e-16;0
-0.534503;9.923762;4.490449;0;0;0;0;-1.110223e-16;0;1.695287e-19;0;0;0;0;2.588661e-22;-1.110226e-16;5.551141e-17;45;0;7.401521e-17;7.401513e-17;-1.110223e-16;3.390574e-19;0;0;-3.390574e-19;4.482044;-1.110223e-16;1.110223e-16;0
1.078483;9.923762;4.519896;0;0;0;0;0;0;-1.085799e-17;0;0;0;0;1.085799e-17;-1.085799e-17;1.085799e-17;45;0;1.447732e-17;1.253773e-17;0;-2.171598e-17;0;0;2.171598e-17;4.532328;0;0;0
2.691469;9.923762;4.579471;0;0;0;0;0;-1.110223e-16;1.358762e-19;0;0;0;0;1.662937e-22;-1.110225e-16;5.551132e-17;45;0;7.401509e-17;7.401504e-17;0;0;2.717524e-19;-1.110223e-16;2.717524e-19;4.569585;-1.110223e-16;1.110223e-16;0
4.304455;9.923762;4.602258;0;0;0;0;-1.110223e-16;0;-4.241383e-20;0;0;0;0;1.620334e-23;-1.110223e-16;5.551116e-17;45;0;7.401489e-17;7.401488e-17;-1.110223e-16;-8.482766e-20;0;0;8.482766e-20;4.580052;-1.110223e-16;1.110223e-16;0
5.917441;9.923762;4.556313;0;0;0;0;2.220446e-16;-1.110223e-16;6.76643e-20;0;0;0;0;2.220446e-16;-1.110223e-16;1.665335e-16;45;0;2.220446e-16;1.95825e-16;2.220446e-16;6.784272e-19;-5.430986e-19;-1.110223e-16;-1.221526e-18;4.53663;1.110223e-16;-1.110223e-16;0
7.530427;9.923762;4.457119;0;0;0;0;0;2.220446e-16;1.139493e-17;0;0;0;0;2.226278e-16;-5.832357e-19;1.116055e-16;45;0;1.488074e-16;1.486134e-16;0;2.170592e-17;1.083951e-18;2.220446e-16;-2.062197e-17;4.434814;2.220446e-16;-2.220446e-16;0
9.143413;9.923762;4.302036;0;0;0;0;-1.110223e-16;0;-6.781368e-19;0;0;0;0;4.141982e-21;-1.110264e-16;5.551529e-17;45;0;7.402039e-17;7.401901e-17;-1.110223e-16;-1.356274e-18;0;0;1.356274e-18;4.280756;-1.110223e-16;1.110223e-16;0
10.756399;9.923762;4.094921;0;0;0;0;0;0;0;0;0;0;0;0;0;0;45;0;0;0;0;0;0;0;0;4.080798;0;0;0
12.369385;9.923762;3.856318;0;0;0;0;0;0;-6.781919e-19;0;0;0;0;6.781919e-19;-6.781919e-19;6.781919e-19;45;0;9.04256e-19;7.831086e-19;0;-1.356384e-18;0;0;1.356384e-18;3.840834;0;0;0
13.982371;9.923762;3.581012;0;0;0;0;2.220446e-16;0;1.356424e-18;0;0;0;0;2.220529e-16;-8.285804e-21;1.110306e-16;45;0;1.480408e-16;1.48038e-16;2.220446e-16;2.712849e-18;0;0;-2.712849e-18;3.563083;2.220446e-16;-2.220446e-16;0
15.595357;9.923762;3.260517;0;0;0;0;2.220446e-16;0;1.221083e-17;0;0;0;0;2.227141e-16;-6.694883e-19;1.116918e-16;45;0;1.489224e-16;1.486997e-16;2.220446e-16;2.442167e-17;0;0;-2.442167e-17;3.241611;2.220446e-16;-2.220446e-16;0
17.208343;9.923762;2.889788;0;0;0;0;-1.110223e-16;0;-1.357041e-18;0;0;0;0;1.658481e-20;-1.110389e-16;5.552773e-17;45;0;7.403698e-17;7.403145e-17;-1.110223e-16;-2.714081e-18;0;0;2.714081e-18;2.87083;-1.110223e-16;1.110223e-16;0
18.821329;9.923762;2.46666;0;0;0;0;2.220446e-16;2.220446e-16;-7.407185e-18;0;0;0;0;2.294518e-16;2.146374e-16;7.407185e-18;45;0;9.876246e-18;1.482766e-16;2.220446e-16;-1.900503e-17;4.190664e-18;2.220446e-16;2.31957e-17;2.449327;4.440892e-16;-4.440892e-16;0
20.434315;9.923762;1.996556;0;0;0;0;0;0;-9.503131e-18;0;0;0;0;9.503131e-18;-9.503131e-18;9.503131e-18;45;0;1.267084e-17;1.097327e-17;0;-1.900626e-17;0;0;1.900626e-17;1.978835;0;0;0
22.047301;9.923762;1.482214;0;0;0;0;-1.110223e-16;2.220446e-16;-1.015697e-17;0;0;0;0;2.223541e-16;-1.113318e-16;1.668429e-16;45;0;2.224572e-16;1.961758e-16;-1.110223e-16;-2.443843e-17;4.124485e-18;2.220446e-16;2.856291e-17;1.46199;1.110223e-16;-1.110223e-16;0
23.660287;9.923762;0.921943;0;0;0;0;0;0;0;0;0;0;0;0;0;0;45;0;0;0;0;0;0;0;0;0.898744;0;0;0
25.273273;9.923762;0.310388;0;0;0;0;-1.110223e-16;0;8.149921e-18;0;0;0;0;5.950794e-19;-1.116174e-16;5.610623e-17;45;0;7.480831e-17;7.461074e-17;-1.110223e-16;1.629984e-17;0;0;-1.629984e-17;0.284243;-1.110223e-16;1.110223e-16;0
26.886259;9.923762;-0.361965;0;0;0;0;-1.110223e-16;2.220446e-16;-1.159061e-17;0;0;0;0;2.224475e-16;-1.114252e-16;1.669363e-16;45;0;2.225818e-16;1.962818e-16;-1.110223e-16;-2.716969e-17;3.988461e-18;2.220446e-16;3.115815e-17;-0.385691;1.110223e-16;-1.110223e-16;0
28.499246;9.923762;-1.092748;0;0;0;0;0;0;1.086973e-17;0;0;0;0;1.086973e-17;-1.086973e-17;1.086973e-17;45;0;1.449298e-17;1.255129e-17;0;2.173947e-17;0;0;-2.173947e-17;-1.113265;0;0;0
30.112232;9.923762;-1.878583;0;0;0;0;0;0;-2.174142e-17;0;0;0;0;2.174142e-17;-2.174142e-17;2.174142e-17;45;0;2.898856e-17;2.510483e-17;0;-4.348284e-17;0;0;4.348284e-17;-1.900495;0;0;0
31.725218;9.923762;-2.72891;0;0;0;0;2.220446e-16;0;2.717548e-18;0;0;0;0;2.220779e-16;-3.325441e-20;1.110556e-16;45;0;1.480741e-16;1.48063e-16;2.220446e-16;5.435097e-18;0;0;-5.435097e-18;-2.743007;2.220446e-16;-2.220446e-16;0
33.338204;9.923762;-3.623056;0;0;0;0;2.220446e-16;2.220446e-16;1.293669e-17;0;0;0;0;2.349813e-16;2.091079e-16;1.293669e-17;45;0;1.724892e-17;1.487815e-16;2.220446e-16;9.749294e-18;1.612408e-17;2.220446e-16;6.374787e-18;-3.622199;4.440892e-16;-4.440892e-16;0
-44.085126;8.310776;-16.568791;0;0;0;0;0;-1.110223e-16;2.056114e-18;0;0;0;0;3.806583e-20;-1.110604e-16;5.554921e-17;45;0;7.406562e-17;7.405294e-17;0;0;4.112228e-18;-1.110223e-16;4.112228e-18;-16.563599;-1.110223e-16;1.110223e-16;0
-42.47214;8.310776;-14.779146;0;0;0;0;2.220446e-16;2.220446e-16;-2.748497e-17;0;0;0;0;2.495296e-16;1.945596e-16;2.748497e-17;45;0;3.664662e-17;1.513936e-16;2.220446e-16;-4.90274e-17;-5.94253e-18;2.220446e-16;4.308487e-17;-14.820116;4.440892e-16;-4.440892e-16;0
-40.859154;8.310776;-13.121998;0;0;0;0;0;0;0;0;0;0;0;0;0;0;45;0;0;0;0;0;0;0;0;-13.159086;0;0;0
-39.246168;8.310776;-11.581423;0;0;0;0;-2.220446e-16;-1.110223e-16;7.04374e-18;0;0;0;0;-1.105772e-16;-2.224897e-16;5.595625e-17;45;0;7.460834e-17;1.284553e-16;-2.220446e-16;1.088906e-17;3.19842e-18;-1.110223e-16;-7.69064e-18;-11.618089;-3.330669e-16;3.330669e-16;0
-37.633182;8.310776;-10.153231;0;0;0;0;-2.220446e-16;2.220446e-16;-5.819781e-19;0;0;0;0;2.220454e-16;-2.220454e-16;2.220454e-16;45;0;2.960605e-16;2.563959e-16;-2.220446e-16;5.442925e-18;-6.606881e-18;2.220446e-16;-1.204981e-17;-10.185106;0;0;0
-36.020196;8.310776;-8.823253;0;0;0;0;0;-1.110223e-16;1.258108e-17;0;0;0;0;1.407839e-18;-1.124301e-16;5.691899e-17;45;0;7.589199e-17;7.542709e-17;0;2.176797e-17;3.394182e-18;-1.110223e-16;-1.837379e-17;-8.849258;-1.110223e-16;1.110223e-16;0
-34.40721;8.310776;-7.571784;0;0;0;0;2.220446e-16;2.220446e-16;-6.195157e-18;0;0;0;0;2.282398e-16;2.158494e-16;6.195157e-18;45;0;8.260209e-18;1.482025e-16;2.220446e-16;-5.44059e-18;-6.949723e-18;2.220446e-16;-1.509134e-18;-7.598329;4.440892e-16;-4.440892e-16;0
-32.794224;8.310776;-6.395328;0;0;0;0;0;0;0;0;0;0;0;0;0;0;45;0;0;0;0;0;0;0;0;-6.435786;0;0;0
-31.181238;8.310776;-5.33149;0;0;0;0;0;2.220446e-16;7.216457e-18;0;0;0;0;2.222789e-16;-2.342879e-19;1.112566e-16;45;0;1.483421e-16;1.482641e-16;0;2.175979e-17;-7.326877e-18;2.220446e-16;-2.908667e-17;-5.35737;2.220446e-16;-2.220446e-16;0
-29.568251;8.310776;-4.337761;0;0;0;0;0;0;-1.088051e-17;0;0;0;0;1.088051e-17;-1.088051e-17;1.088051e-17;45;0;1.450735e-17;1.256373e-17;0;-2.176102e-17;0;0;2.176102e-17;-4.359559;0;0;0
-27.955265;8.310776;-3.406972;0;0;0;0;2.220446e-16;0;8.158539e-18;0;0;0;0;2.22344e-16;-2.993639e-19;1.113217e-16;45;0;1.484289e-16;1.483292e-16;2.220446e-16;1.631708e-17;0;0;-1.631708e-17;-3.429416;2.220446e-16;-2.220446e-16;0
-26.342279;8.310776;-2.544547;0;0;0;0;-1.110223e-16;0;-2.174572e-17;0;0;0;0;4.107339e-18;-1.151296e-16;5.961849e-17;45;0;7.949132e-17;7.815819e-17;-1.110223e-16;-4.349145e-17;0;0;4.349145e-17;-2.561745;-1.110223e-16;1.110223e-16;0
-24.729293;8.310776;-1.736995;0;0;0;0;2.220446e-16;0;-2.717055e-18;0;0;0;0;2.220779e-16;-3.324233e-20;1.110555e-16;45;0;1.480741e-16;1.48063e-16;2.220446e-16;-5.434109e-18;0;0;5.434109e-18;-1.754871;2.220446e-16;-2.220446e-16;0
-23.116307;8.310776;-0.988452;0;0;0;0;2.220446e-16;2.220446e-16;-4.701476e-18;0;0;0;0;2.267461e-16;2.173431e-16;4.701476e-18;45;0;6.268634e-18;1.481293e-16;2.220446e-16;-5.433902e-18;-3.96905e-18;2.220446e-16;1.464852e-18;-1.004257;4.440892e-16;-4.440892e-16;0
-21.503321;8.310776;-0.294123;0;0;0;0;2.220446e-16;0;-2.71704e-18;0;0;0;0;2.220779e-16;-3.324198e-20;1.110555e-16;45;0;1.480741e-16;1.48063e-16;2.220446e-16;-5.43408e-18;0;0;5.43408e-18;-0.30494;2.220446e-16;-2.220446e-16;0
-19.890335;8.310776;0.360571;0;0;0;0;0;-1.110223e-16;2.025969e-18;0;0;0;0;3.69582e-20;-1.110593e-16;5.554811e-17;45;0;7.406414e-17;7.405183e-17;0;0;4.051938e-18;-1.110223e-16;4.051938e-18;0.344877;-1.110223e-16;1.110223e-16;0
-18.277349;8.310776;0.962749;0;0;0;0;-1.110223e-16;0;2.716526e-18;0;0;0;0;6.642901e-20;-1.110887e-16;5.557758e-17;45;0;7.410344e-17;7.408131e-17;-1.110223e-16;5.433052e-18;0;0;-5.433052e-18;0.939611;-1.110223e-16;1.110223e-16;0
-16.664363;8.310776;1.492682;0;0;0;0;-1.110223e-16;-1.110223e-16;-8.46781e-18;0;0;0;0;-1.025545e-16;-1.194901e-16;8.46781e-18;45;0;1.129041e-17;7.465793e-17;-1.110223e-16;-1.901408e-17;2.078457e-18;-1.110223e-16;2.109253e-17;1.469979;-2.220446e-16;2.220446e-16;0
-15.051377;8.310776;1.953651;0;0;0;0;0;0;3.258957e-17;0;0;0;0;3.258957e-17;-3.258957e-17;3.258957e-17;45;0;4.345276e-17;3.763119e-17;0;6.517913e-17;0;0;-6.517913e-17;1.944483;0;0;0
-13.438391;8.310776;2.384442;0;0;0;0;0;0;0;0;0;0;0;0;0;0;45;0;0;0;0;0;0;0;0;2.370722;0;0;0
-11.825405;8.310776;2.768842;0;0;0;0;0;-1.110223e-16;1.062141e-18;0;0;0;0;1.016049e-20;-1.110325e-16;5.552131e-17;45;0;7.402842e-17;7.402503e-17;0;0;2.124283e-18;-1.110223e-16;2.124283e-18;2.749656;-1.110223e-16;1.110223e-16;0
-10.212419;8.310776;3.092741;0;0;0;0;2.220446e-16;0;3.258096e-17;0;0;0;0;2.267266e-16;-4.681935e-18;1.157042e-16;45;0;1.542723e-16;1.527356e-16;2.220446e-16;6.516192e-17;0;0;-6.516192e-17;3.092896;2.220446e-16;-2.220446e-16;0
-8.599433;8.310776;3.421552;0;0;0;0;-1.110223e-16;0;-3.843027e-24;0;0;0;0;1.355855e-31;-1.110223e-16;5.551115e-17;45;0;7.401487e-17;7.401487e-17;-1.110223e-16;-7.686053e-24;0;0;7.686053e-24;3.419002;-1.110223e-16;1.110223e-16;0
-6.986447;8.310776;3.753514;0;0;0;0;0;-1.110223e-16;-9.790206e-18;0;0;0;0;8.567123e-19;-1.11879e-16;5.636787e-17;45;0;7.515715e-17;7.487321e-17;0;-2.171851e-17;2.138099e-18;-1.110223e-16;2.385661e-17;3.727211;-1.110223e-16;1.110223e-16;0
-5.373461;8.310776;4.0177;0;0;0;0;2.220446e-16;-1.110223e-16;-1.398167e-19;0;0;0;0;2.220447e-16;-1.110224e-16;1.665335e-16;45;0;2.220447e-16;1.95825e-16;2.220446e-16;-1.356502e-18;1.076868e-18;-1.110223e-16;2.43337e-18;3.988568;1.110223e-16;-1.110223e-16;0
-3.760475;8.310776;4.200657;0;0;0;0;0;2.220446e-16;-5.413267e-19;0;0;0;0;2.220459e-16;-1.319703e-21;1.110236e-16;45;0;1.480315e-16;1.480311e-16;0;0;-1.082653e-18;2.220446e-16;-1.082653e-18;4.177949;2.220446e-16;-2.220446e-16;0
-2.147489;8.310776;4.315427;0;0;0;0;0;0;0;0;0;0;0;0;0;0;45;0;0;0;0;0;0;0;0;4.298267;0;0;0
-0.534503;8.310776;4.374546;0;0;0;0;0;2.220446e-16;-1.112658e-17;0;0;0;0;2.226008e-16;-5.561565e-19;1.115785e-16;45;0;1.487713e-16;1.485862e-16;0;-2.170976e-17;-5.434085e-19;2.220446e-16;2.116635e-17;4.370727;2.220446e-16;-2.220446e-16;0
1.078483;8.310776;4.418281;0;0;0;0;0;0;-1.086097e-17;0;0;0;0;1.086097e-17;-1.086097e-17;1.086097e-17;45;0;1.44813e-17;1.254117e-17;0;-2.172195e-17;0;0;2.172195e-17;4.426335;0;0;0
2.691469;8.310776;4.486594;0;0;0;0;-1.110223e-16;0;1.1033e-17;0;0;0;0;1.085802e-18;-1.121081e-16;5.659695e-17;45;0;7.54626e-17;7.510329e-17;-1.110223e-16;2.206601e-17;0;0;-2.206601e-17;4.466114;-1.110223e-16;1.110223e-16;0
4.304455;8.310776;4.499301;0;0;0;0;-1.110223e-16;-1.110223e-16;1.070398e-17;0;0;0;0;-1.003183e-16;-1.217263e-16;1.070398e-17;45;0;1.427198e-17;7.503977e-17;-1.110223e-16;2.154387e-17;-1.359068e-19;-1.110223e-16;-2.167978e-17;4.47315;-2.220446e-16;2.220446e-16;0
5.917441;8.310776;4.443177;0;0;0;0;2.220446e-16;2.220446e-16;6.104353e-19;0;0;0;0;2.226551e-16;2.214342e-16;6.104353e-19;45;0;8.139137e-19;1.480314e-16;2.220446e-16;6.778751e-19;5.429954e-19;2.220446e-16;-1.348797e-19;4.423405;4.440892e-16;-4.440892e-16;0
7.530427;8.310776;4.337319;0;0;0;0;0;0;-3.38884e-19;0;0;0;0;3.38884e-19;-3.38884e-19;3.38884e-19;45;0;4.518453e-19;3.913095e-19;0;-6.777679e-19;0;0;6.777679e-19;4.318685;0;0;0
9.143413;8.310776;4.181651;0;0;0;0;0;0;-1.084652e-17;0;0;0;0;1.084652e-17;-1.084652e-17;1.084652e-17;45;0;1.446202e-17;1.252448e-17;0;-2.169303e-17;0;0;2.169303e-17;4.164551;0;0;0
10.756399;8.310776;3.974909;0;0;0;0;-1.110223e-16;0;-6.780501e-19;0;0;0;0;4.140923e-21;-1.110264e-16;5.551529e-17;45;0;7.402039e-17;7.401901e-17;-1.110223e-16;-1.3561e-18;0;0;1.3561e-18;3.965144;-1.110223e-16;1.110223e-16;0
12.369385;8.310776;3.734278;0;0;0;0;0;0;0;0;0;0;0;0;0;0;45;0;0;0;0;0;0;0;0;3.724808;0;0;0
13.982371;8.310776;3.458181;0;0;0;0;2.220446e-16;0;1.220743e-17;0;0;0;0;2.227137e-16;-6.691167e-19;1.116914e-16;45;0;1.489219e-16;1.486994e-16;2.220446e-16;2.441487e-17;0;0;-2.441487e-17;3.447321;2.220446e-16;-2.220446e-16;0
15.595357;8.310776;3.141362;0;0;0;0;0;0;1.085539e-17;0;0;0;0;1.085539e-17;-1.085539e-17;1.085539e-17;45;0;1.447385e-17;1.253472e-17;0;2.171077e-17;0;0;-2.171077e-17;3.128228;0;0;0
17.208343;8.310776;2.775653;0;0;0;0;2.220446e-16;0;-9.503191e-18;0;0;0;0;2.224506e-16;-4.059807e-19;1.114283e-16;45;0;1.48571e-16;1.484359e-16;2.220446e-16;-1.900638e-17;0;0;1.900638e-17;2.760625;2.220446e-16;-2.220446e-16;0
18.821329;8.310776;2.353619;0;0;0;0;0;-1.110223e-16;9.815738e-18;0;0;0;0;8.611524e-19;-1.118835e-16;5.637231e-17;45;0;7.516307e-17;7.487767e-17;0;2.172648e-17;-2.095007e-18;-1.110223e-16;-2.382149e-17;2.340174;-1.110223e-16;1.110223e-16;0
20.434315;8.310776;1.879257;0;0;0;0;-1.110223e-16;0;1.900756e-17;0;0;0;0;3.164016e-18;-1.141863e-16;5.867517e-17;45;0;7.823356e-17;7.72005e-17;-1.110223e-16;3.801512e-17;0;0;-3.801512e-17;1.867731;-1.110223e-16;1.110223e-16;0
22.047301;8.310776;1.360591;0;0;0;0;0;-1.110223e-16;-3.418028e-18;0;0;0;0;1.051308e-19;-1.111274e-16;5.561628e-17;45;0;7.415504e-17;7.412002e-17;0;-2.714357e-18;-4.121698e-18;-1.110223e-16;-1.407341e-18;1.347326;-1.110223e-16;1.110223e-16;0
23.660287;8.310776;0.798732;0;0;0;0;2.220446e-16;2.220446e-16;-6.098483e-18;0;0;0;0;2.281431e-16;2.159461e-16;6.098483e-18;45;0;8.131311e-18;1.481971e-16;2.220446e-16;-1.628212e-17;4.085154e-18;2.220446e-16;2.036727e-17;0.781145;4.440892e-16;-4.440892e-16;0
25.273273;8.310776;0.188591;0;0;0;0;0;0;-1.085516e-17;0;0;0;0;1.085516e-17;-1.085516e-17;1.085516e-17;45;0;1.447354e-17;1.253446e-17;0;-2.171032e-17;0;0;2.171032e-17;0.165519;0;0;0
26.886259;8.310776;-0.480367;0;0;0;0;2.220446e-16;0;2.714407e-18;0;0;0;0;2.220778e-16;-3.317759e-20;1.110555e-16;45;0;1.48074e-16;1.480629e-16;2.220446e-16;5.428814e-18;0;0;-5.428814e-18;-0.503676;2.220446e-16;-2.220446e-16;0
28.499246;8.310776;-1.207629;0;0;0;0;2.220446e-16;0;1.358054e-17;0;0;0;0;2.228721e-16;-8.275198e-19;1.118498e-16;45;0;1.491331e-16;1.48858e-16;2.220446e-16;2.716108e-17;0;0;-2.716108e-17;-1.229973;2.220446e-16;-2.220446e-16;0
30.112232;8.310776;-1.99309;0;0;0;0;0;0;0;0;0;0;0;0;0;0;45;0;0;0;0;0;0;0;0;-2.016237;0;0;0
31.725218;8.310776;-2.843911;0;0;0;0;-1.110223e-16;-1.110223e-16;-1.54993e-17;0;0;0;0;-9.5523e-17;-1.265216e-16;1.54993e-17;45;0;2.066574e-17;7.614792e-17;-1.110223e-16;-2.717826e-17;-3.820349e-18;-1.110223e-16;2.335791e-17;-2.861202;-2.220446e-16;2.220446e-16;0
33.338204;8.310776;-3.746361;0;0;0;0;0;0;0;0;0;0;0;0;0;0;45;0;0;0;0;0;0;0;0;-3.7456;0;0;0
-44.085126;6.69779;-16.656673;0;0;0;0;-1.110223e-16;0;1.888478e-17;0;0;0;0;3.124358e-18;-1.141467e-16;5.863551e-17;45;0;7.818068e-17;7.716031e-17;-1.110223e-16;3.776957e-17;0;0;-3.776957e-17;-16.661155;-1.110223e-16;1.110223e-16;0
-42.47214;6.69779;-14.880753;0;0;0;0;0;0;-1.089513e-17;0;0;0;0;1.089513e-17;-1.089513e-17;1.089513e-17;45;0;1.452685e-17;1.258062e-17;0;-2.179027e-17;0;0;2.179027e-17;-14.925252;0;0;0
-40.859154;6.69779;-13.226832;0;0;0;0;0;0;-2.178494e-17;0;0;0;0;2.178494e-17;-2.178494e-17;2.178494e-17;45;0;2.904659e-17;2.515509e-17;0;-4.356989e-17;0;0;4.356989e-17;-13.267986;0;0;0
-39.246168;6.69779;-11.68698;0;0;0;0;-2.220446e-16;-1.110223e-16;4.320917e-18;0;0;0;0;-1.108544e-16;-2.222125e-16;5.567906e-17;45;0;7.423875e-17;1.282946e-16;-2.220446e-16;5.443161e-18;3.198674e-18;-1.110223e-16;-2.244487e-18;-11.727112;-3.330669e-16;3.330669e-16;0
-37.633182;6.69779;-10.263198;0;0;0;0;2.220446e-16;-1.110223e-16;7.098021e-18;0;0;0;0;2.221958e-16;-1.111735e-16;1.666846e-16;45;0;2.222462e-16;1.959964e-16;2.220446e-16;1.089012e-17;3.305925e-18;-1.110223e-16;-7.584191e-18;-10.294328;1.110223e-16;-1.110223e-16;0
-36.020196;6.69779;-8.939861;0;0;0;0;2.220446e-16;0;-2.721866e-17;0;0;0;0;2.253324e-16;-3.287832e-18;1.143101e-16;45;0;1.524135e-16;1.513295e-16;2.220446e-16;-5.443731e-17;0;0;5.443731e-17;-8.959247;2.220446e-16;-2.220446e-16;0
-34.40721;6.69779;-7.692844;0;0;0;0;2.220446e-16;2.220446e-16;-1.708372e-17;0;0;0;0;2.391283e-16;2.049609e-16;1.708372e-17;45;0;2.277829e-17;1.493383e-16;2.220446e-16;-2.721152e-17;-6.955917e-18;2.220446e-16;2.025561e-17;-7.710346;4.440892e-16;-4.440892e-16;0
-32.794224;6.69779;-6.519638;0;0;0;0;2.220446e-16;-1.110223e-16;2.082563e-17;0;0;0;0;2.233417e-16;-1.123194e-16;1.678306e-16;45;0;2.237741e-16;1.972959e-16;2.220446e-16;3.808188e-17;3.569379e-18;-1.110223e-16;-3.45125e-17;-6.547876;1.110223e-16;-1.110223e-16;0
-31.181238;6.69779;-5.445276;0;0;0;0;2.220446e-16;-1.110223e-16;1.82829e-18;0;0;0;0;2.220546e-16;-1.110323e-16;1.665435e-16;45;0;2.22058e-16;1.958363e-16;2.220446e-16;5.167086e-22;3.656063e-18;-1.110223e-16;3.655546e-18;-5.467073;1.110223e-16;-1.110223e-16;0
-29.568251;6.69779;-4.440129;0;0;0;0;2.220446e-16;-1.110223e-16;-1.17352e-17;0;0;0;0;2.224576e-16;-1.114353e-16;1.669464e-16;45;0;2.225952e-16;1.962932e-16;2.220446e-16;-2.719857e-17;3.728177e-18;-1.110223e-16;3.092674e-17;-4.465608;1.110223e-16;-1.110223e-16;0
-27.955265;6.69779;-3.510258;0;0;0;0;0;-1.110223e-16;1.901484e-18;0;0;0;0;3.255726e-20;-1.110549e-16;5.554371e-17;45;0;7.405828e-17;7.404743e-17;0;0;3.802969e-18;-1.110223e-16;3.802969e-18;-3.534868;-1.110223e-16;1.110223e-16;0
-26.342279;6.69779;-2.656493;0;0;0;0;2.220446e-16;-1.110223e-16;-1.166234e-17;0;0;0;0;2.224525e-16;-1.114302e-16;1.669413e-16;45;0;2.225884e-16;1.962874e-16;2.220446e-16;-2.718977e-17;3.8651e-18;-1.110223e-16;3.105487e-17;-2.669987;1.110223e-16;-1.110223e-16;0
-24.729293;6.69779;-1.851053;0;0;0;0;2.220446e-16;-1.110223e-16;1.011277e-17;0;0;0;0;2.223514e-16;-1.113291e-16;1.668402e-16;45;0;2.224536e-16;1.961728e-16;2.220446e-16;1.631032e-17;3.915228e-18;-1.110223e-16;-1.239509e-17;-1.865179;1.110223e-16;-1.110223e-16;0
-23.116307;6.69779;-1.096791;0;0;0;0;-1.110223e-16;0;2.717861e-18;0;0;0;0;6.649428e-20;-1.110888e-16;5.557764e-17;45;0;7.410352e-17;7.408138e-17;-1.110223e-16;5.435723e-18;0;0;-5.435723e-18;-1.114638;-1.110223e-16;1.110223e-16;0
-21.503321;6.69779;-0.401045;0;0;0;0;-1.110223e-16;0;2.717612e-18;0;0;0;0;6.648207e-20;-1.110888e-16;5.557763e-17;45;0;7.410351e-17;7.408136e-17;-1.110223e-16;5.435223e-18;0;0;-5.435223e-18;-0.414044;-1.110223e-16;1.110223e-16;0
-19.890335;6.69779;0.253484;0;0;0;0;0;2.220446e-16;-2.37656e-17;0;0;0;0;2.245598e-16;-2.51516e-18;1.135375e-16;45;0;1.513833e-16;1.505519e-16;0;-4.347966e-17;-4.051543e-18;2.220446e-16;3.942812e-17;0.236571;2.220446e-16;-2.220446e-16;0
-18.277349;6.69779;0.855675;0;0;0;0;0;2.220446e-16;-6.937485e-19;0;0;0;0;2.220468e-16;-2.167503e-21;1.110245e-16;45;0;1.480326e-16;1.480319e-16;0;2.716797e-18;-4.104294e-18;2.220446e-16;-6.821091e-18;0.831218;2.220446e-16;-2.220446e-16;0
-16.664363;6.69779;1.38447;0;0;0;0;0;0;1.086276e-17;0;0;0;0;1.086276e-17;-1.086276e-17;1.086276e-17;45;0;1.448368e-17;1.254323e-17;0;2.172552e-17;0;0;-2.172552e-17;1.360724;0;0;0
-15.051377;6.69779;1.84613;0;0;0;0;0;-1.110223e-16;1.047513e-18;0;0;0;0;9.882575e-21;-1.110322e-16;5.552103e-17;45;0;7.402805e-17;7.402475e-17;0;0;2.095026e-18;-1.110223e-16;2.095026e-18;1.835003;-1.110223e-16;1.110223e-16;0
-13.438391;6.69779;2.28075;0;0;0;0;0;2.220446e-16;-1.297031e-17;0;0;0;0;2.227997e-16;-7.550684e-19;1.117774e-16;45;0;1.490365e-16;1.487854e-16;0;-2.172583e-17;-4.214797e-18;2.220446e-16;1.751103e-17;2.262166;2.220446e-16;-2.220446e-16;0
-11.825405;6.69779;2.664145;0;0;0;0;2.220446e-16;-1.110223e-16;2.142937e-17;0;0;0;0;2.234177e-16;-1.123954e-16;1.679065e-16;45;0;2.238754e-16;1.973821e-16;2.220446e-16;4.073409e-17;2.124652e-18;-1.110223e-16;-3.860944e-17;2.6419;1.110223e-16;-1.110223e-16;0
-10.212419;6.69779;2.982231;0;0;0;0;0;-1.110223e-16;1.192474e-17;0;0;0;0;1.266374e-18;-1.122887e-16;5.677753e-17;45;0;7.570336e-17;7.528479e-17;0;2.171679e-17;2.132688e-18;-1.110223e-16;-1.95841e-17;2.984313;-1.110223e-16;1.110223e-16;0
-8.599433;6.69779;3.306742;0;0;0;0;-1.110223e-16;0;1.356841e-18;0;0;0;0;1.657993e-20;-1.110389e-16;5.552773e-17;45;0;7.403697e-17;7.403145e-17;-1.110223e-16;2.713681e-18;0;0;-2.713681e-18;3.308754;-1.110223e-16;1.110223e-16;0
-6.986447;6.69779;3.638519;0;0;0;0;0;0;1.085293e-17;0;0;0;0;1.085293e-17;-1.085293e-17;1.085293e-17;45;0;1.447058e-17;1.253189e-17;0;2.170586e-17;0;0;-2.170586e-17;3.615862;0;0;0
-5.373461;6.69779;3.905057;0;0;0;0;0;0;1.085272e-17;0;0;0;0;1.085272e-17;-1.085272e-17;1.085272e-17;45;0;1.447029e-17;1.253164e-17;0;2.170544e-17;0;0;-2.170544e-17;3.877174;0;0;0
-3.760475;6.69779;4.091288;0;0;0;0;0;2.220446e-16;-1.139563e-17;0;0;0;0;2.226279e-16;-5.833065e-19;1.116056e-16;45;0;1.488075e-16;1.486134e-16;0;-2.170867e-17;-1.082588e-18;2.220446e-16;2.062608e-17;4.066806;2.220446e-16;-2.220446e-16;0
-2.147489;6.69779;4.206584;0;0;0;0;2.220446e-16;0;-1.085549e-17;0;0;0;0;2.225741e-16;-5.294493e-19;1.115518e-16;45;0;1.487357e-16;1.485595e-16;2.220446e-16;-2.171098e-17;0;0;2.171098e-17;4.187391;2.220446e-16;-2.220446e-16;0
-0.534503;6.69779;4.265203;0;0;0;0;2.220446e-16;-1.110223e-16;-1.089041e-17;0;0;0;0;2.224003e-16;-1.11378e-16;1.668892e-16;45;0;2.225189e-16;1.962283e-16;2.220446e-16;-2.20525e-17;2.716855e-19;-1.110223e-16;2.232418e-17;4.262074;1.110223e-16;-1.110223e-16;0
1.078483;6.69779;4.316296;0;0;0;0;2.220446e-16;0;1.068892e-17;0;0;0;0;2.22558e-16;-5.133629e-19;1.115357e-16;45;0;1.487142e-16;1.485434e-16;2.220446e-16;2.137784e-17;0;0;-2.137784e-17;4.321051;2.220446e-16;-2.220446e-16;0
2.691469;6.69779;4.386282;0;0;0;0;2.220446e-16;-1.110223e-16;-1.08065e-17;0;0;0;0;2.223949e-16;-1.113726e-16;1.668837e-16;45;0;2.225116e-16;1.962221e-16;2.220446e-16;-2.188478e-17;2.71773e-19;-1.110223e-16;2.215655e-17;4.361107;1.110223e-16;-1.110223e-16;0
4.304455;6.69779;4.386651;0;0;0;0;0;-1.110223e-16;1.063042e-17;0;0;0;0;1.008701e-18;-1.12031e-16;5.651985e-17;45;0;7.53598e-17;7.502583e-17;0;2.153262e-17;-2.717836e-19;-1.110223e-16;-2.18044e-17;4.362883;-1.110223e-16;1.110223e-16;0
5.917441;6.69779;4.318299;0;0;0;0;2.220446e-16;0;-1.926504e-23;0;0;0;0;2.220446e-16;-1.676329e-30;1.110223e-16;45;0;1.480297e-16;1.480297e-16;2.220446e-16;-3.853008e-23;0;0;3.853008e-23;4.305819;2.220446e-16;-2.220446e-16;0
7.530427;6.69779;4.210204;0;0;0;0;0;-1.110223e-16;1.030193e-17;0;0;0;0;9.478407e-19;-1.119701e-16;5.645899e-17;45;0;7.527866e-17;7.496471e-17;0;2.168781e-17;-1.083943e-18;-1.110223e-16;-2.277176e-17;4.198704;-1.110223e-16;1.110223e-16;0
9.143413;6.69779;4.062043;0;0;0;0;0;0;4.560229e-23;0;0;0;0;4.560229e-23;-4.560229e-23;4.560229e-23;45;0;6.080305e-23;5.265699e-23;0;9.120458e-23;0;0;-9.120458e-23;4.046767;0;0;0
10.756399;6.69779;3.860755;0;0;0;0;-1.110223e-16;0;-6.784484e-19;0;0;0;0;4.145789e-21;-1.110264e-16;5.551529e-17;45;0;7.40204e-17;7.401901e-17;-1.110223e-16;-1.356897e-18;0;0;1.356897e-18;3.850416;-1.110223e-16;1.110223e-16;0
12.369385;6.69779;3.619381;0;0;0;0;0;0;-6.786042e-19;0;0;0;0;6.786042e-19;-6.786042e-19;6.786042e-19;45;0;9.048057e-19;7.835847e-19;0;-1.357208e-18;0;0;1.357208e-18;3.611175;0;0;0
13.982371;6.69779;3.343515;0;0;0;0;2.220446e-16;0;2.23952e-17;0;0;0;0;2.242809e-16;-2.236237e-18;1.132585e-16;45;0;1.510114e-16;1.502715e-16;2.220446e-16;4.47904e-17;0;0;-4.47904e-17;3.333939;2.220446e-16;-2.220446e-16;0
15.595357;6.69779;3.031324;0;0;0;0;-1.110223e-16;-1.110223e-16;-2.421699e-18;0;0;0;0;-1.086006e-16;-1.13444e-16;2.421699e-18;45;0;3.228932e-18;7.406767e-17;-1.110223e-16;-2.714875e-18;-2.128523e-18;-1.110223e-16;5.863516e-19;3.016486;-2.220446e-16;2.220446e-16;0
17.208343;6.69779;2.672696;0;0;0;0;0;0;1.086337e-17;0;0;0;0;1.086337e-17;-1.086337e-17;1.086337e-17;45;0;1.44845e-17;1.254394e-17;0;2.172675e-17;0;0;-2.172675e-17;2.651442;0;0;0
18.821329;6.69779;2.254006;0;0;0;0;0;2.220446e-16;2.094847e-18;0;0;0;0;2.220644e-16;-1.976176e-20;1.110421e-16;45;0;1.480561e-16;1.480495e-16;0;0;4.189693e-18;2.220446e-16;4.189693e-18;2.232239;2.220446e-16;-2.220446e-16;0
20.434315;6.69779;1.773332;0;0;0;0;0;0;-1.086672e-17;0;0;0;0;1.086672e-17;-1.086672e-17;1.086672e-17;45;0;1.448896e-17;1.254781e-17;0;-2.173344e-17;0;0;2.173344e-17;1.758087;0;0;0
22.047301;6.69779;1.24334;0;0;0;0;0;-1.110223e-16;-2.058028e-18;0;0;0;0;3.813669e-20;-1.110604e-16;5.554929e-17;45;0;7.406572e-17;7.405301e-17;0;0;-4.116055e-18;-1.110223e-16;-4.116055e-18;1.233298;-1.110223e-16;1.110223e-16;0
23.660287;6.69779;0.669966;0;0;0;0;2.220446e-16;0;2.715057e-18;0;0;0;0;2.220778e-16;-3.319348e-20;1.110555e-16;45;0;1.48074e-16;1.480629e-16;2.220446e-16;5.430114e-18;0;0;-5.430114e-18;0.662012;2.220446e-16;-2.220446e-16;0
25.273273;6.69779;0.054538;0;0;0;0;0;-1.110223e-16;-2.019693e-18;0;0;0;0;3.672964e-20;-1.11059e-16;5.554788e-17;45;0;7.406384e-17;7.40516e-17;0;0;-4.039386e-18;-1.110223e-16;-4.039386e-18;0.043004;-1.110223e-16;1.110223e-16;0
26.886259;6.69779;-0.61215;0;0;0;0;-1.110223e-16;0;-2.714528e-18;0;0;0;0;6.633139e-20;-1.110886e-16;5.557748e-17;45;0;7.410331e-17;7.408121e-17;-1.110223e-16;-5.429056e-18;0;0;5.429056e-18;-0.62629;-1.110223e-16;1.110223e-16;0
28.499246;6.69779;-1.331742;0;0;0;0;-1.110223e-16;0;-2.715691e-18;0;0;0;0;6.638819e-20;-1.110887e-16;5.557754e-17;45;0;7.410339e-17;7.408126e-17;-1.110223e-16;-5.431382e-18;0;0;5.431382e-18;-1.350498;-1.110223e-16;1.110223e-16;0
30.112232;6.69779;-2.111481;0;0;0;0;0;0;0;0;0;0;0;0;0;0;45;0;0;0;0;0;0;0;0;-2.133951;0;0;0
31.725218;6.69779;-2.958043;0;0;0;0;-1.110223e-16;-1.110223e-16;1.711487e-17;0;0;0;0;-9.390743e-17;-1.281372e-16;1.711487e-17;45;0;2.281983e-17;7.660782e-17;-1.110223e-16;3.804783e-17;-3.81809e-18;-1.110223e-16;-4.186592e-17;-2.979859;-2.220446e-16;2.220446e-16;0
33.338204;6.69779;-3.867382;0;0;0;0;2.220446e-16;0;1.891681e-17;0;0;0;0;2.236447e-16;-1.600064e-18;1.126224e-16;45;0;1.501632e-16;1.496327e-16;2.220446e-16;3.783363e-17;0;0;-3.783363e-17;-3.868487;2.220446e-16;-2.220446e-16;0
-44.085126;5.084804;-16.758;0;0;0;0;2.220446e-16;2.220446e-16;-9.09682e-18;0;0;0;0;2.311414e-16;2.129478e-16;9.09682e-18;45;0;1.212909e-17;1.484019e-16;2.220446e-16;-9.903331e-18;-8.290309e-18;2.220446e-16;1.613022e-18;-16.762173;4.440892e-16;-4.440892e-16;0
-42.47214;5.084804;-14.991645;0;0;0;0;0;2.220446e-16;-2.98345e-18;0;0;0;0;2.220847e-16;-4.007919e-20;1.110624e-16;45;0;1.480832e-16;1.480698e-16;0;0;-5.9669e-18;2.220446e-16;-5.9669e-18;-15.03296;2.220446e-16;-2.220446e-16;0
-40.859154;5.084804;-13.343427;0;0;0;0;0;-1.110223e-16;1.243569e-17;0;0;0;0;1.375879e-18;-1.123982e-16;5.688703e-17;45;0;7.584937e-17;7.539493e-17;0;2.178176e-17;3.089614e-18;-1.110223e-16;-1.869215e-17;-13.379473;-1.110223e-16;1.110223e-16;0
-39.246168;5.084804;-11.799664;0;0;0;0;0;2.220446e-16;-1.408363e-17;0;0;0;0;2.229343e-16;-8.897173e-19;1.11912e-16;45;0;1.49216e-16;1.489203e-16;0;-2.177914e-17;-6.388112e-18;2.220446e-16;1.539103e-17;-11.837453;2.220446e-16;-2.220446e-16;0
-37.633182;5.084804;-10.367259;0;0;0;0;-2.220446e-16;0;-8.168152e-18;0;0;0;0;3.000689e-19;-2.223447e-16;1.113224e-16;45;0;1.484298e-16;1.483299e-16;-2.220446e-16;-1.63363e-17;0;0;1.63363e-17;-10.400719;-2.220446e-16;2.220446e-16;0
-36.020196;5.084804;-9.034084;0;0;0;0;0;0;0;0;0;0;0;0;0;0;45;0;0;0;0;0;0;0;0;-9.062449;0;0;0
-34.40721;5.084804;-7.787704;0;0;0;0;2.220446e-16;-1.110223e-16;9.909135e-18;0;0;0;0;2.223392e-16;-1.113168e-16;1.66828e-16;45;0;2.224373e-16;1.961589e-16;2.220446e-16;1.63338e-17;3.484473e-18;-1.110223e-16;-1.284932e-17;-7.815668;1.110223e-16;-1.110223e-16;0
-32.794224;5.084804;-6.628619;0;0;0;0;-1.110223e-16;-1.110223e-16;4.508689e-18;0;0;0;0;-1.065136e-16;-1.15531e-16;4.508689e-18;45;0;6.011585e-18;7.419774e-17;-1.110223e-16;5.441016e-18;3.576362e-18;-1.110223e-16;-1.864654e-18;-6.657134;-2.220446e-16;2.220446e-16;0
-31.181238;5.084804;-5.558201;0;0;0;0;2.220446e-16;0;1.903988e-17;0;0;0;0;2.236654e-16;-1.620801e-18;1.126431e-16;45;0;1.501908e-16;1.496535e-16;2.220446e-16;3.807977e-17;0;0;-3.807977e-17;-5.577738;2.220446e-16;-2.220446e-16;0
-29.568251;5.084804;-4.54721;0;0;0;0;0;0;-1.087852e-17;0;0;0;0;1.087852e-17;-1.087852e-17;1.087852e-17;45;0;1.45047e-17;1.256144e-17;0;-2.175705e-17;0;0;2.175705e-17;-4.573624;0;0;0
-27.955265;5.084804;-3.613173;0;0;0;0;0;0;1.087841e-17;0;0;0;0;1.087841e-17;-1.087841e-17;1.087841e-17;45;0;1.450455e-17;1.256131e-17;0;2.175682e-17;0;0;-2.175682e-17;-3.640157;0;0;0
-26.342279;5.084804;-2.75727;0;0;0;0;2.220446e-16;0;2.453302e-22;0;0;0;0;2.220446e-16;-2.710477e-28;1.110223e-16;45;0;1.480297e-16;1.480297e-16;2.220446e-16;4.906604e-22;0;0;-4.906604e-22;-2.775541;2.220446e-16;-2.220446e-16;0
-24.729293;5.084804;-1.953123;0;0;0;0;0;0;-1.087482e-17;0;0;0;0;1.087482e-17;-1.087482e-17;1.087482e-17;45;0;1.449976e-17;1.255717e-17;0;-2.174965e-17;0;0;2.174965e-17;-1.972499;0;0;0
-23.116307;5.084804;-1.201887;0;0;0;0;-1.110223e-16;0;-1.08715e-17;0;0;0;0;1.05454e-18;-1.120768e-16;5.656569e-17;45;0;7.542092e-17;7.507187e-17;-1.110223e-16;-2.1743e-17;0;0;2.1743e-17;-1.223099;-1.110223e-16;1.110223e-16;0
-21.503321;5.084804;-0.508272;0;0;0;0;0;2.220446e-16;-2.37445e-17;0;0;0;0;2.245553e-16;-2.510746e-18;1.135331e-16;45;0;1.513774e-16;1.505475e-16;0;-4.347945e-17;-4.009562e-18;2.220446e-16;3.946989e-17;-0.521761;2.220446e-16;-2.220446e-16;0
-19.890335;5.084804;0.150118;0;0;0;0;-1.110223e-16;0;1.222806e-17;0;0;0;0;1.330853e-18;-1.123532e-16;5.684201e-17;45;0;7.578934e-17;7.534964e-17;-1.110223e-16;2.445612e-17;0;0;-2.445612e-17;0.129379;-1.110223e-16;1.110223e-16;0
-18.277349;5.084804;0.749983;0;0;0;0;0;0;1.086592e-17;0;0;0;0;1.086592e-17;-1.086592e-17;1.086592e-17;45;0;1.448789e-17;1.254688e-17;0;2.173184e-17;0;0;-2.173184e-17;0.722686;0;0;0
-16.664363;5.084804;1.27123;0;0;0;0;0;0;1.357496e-18;0;0;0;0;1.357496e-18;-1.357496e-18;1.357496e-18;45;0;1.809995e-18;1.567501e-18;0;2.714992e-18;0;0;-2.714992e-18;1.249238;0;0;0
-15.051377;5.084804;1.729945;0;0;0;0;0;0;1.085642e-17;0;0;0;0;1.085642e-17;-1.085642e-17;1.085642e-17;45;0;1.447522e-17;1.253591e-17;0;2.171284e-17;0;0;-2.171284e-17;1.722251;0;0;0
-13.438391;5.084804;2.171728;0;0;0;0;0;-1.110223e-16;1.0531e-18;0;0;0;0;9.988254e-21;-1.110323e-16;5.552114e-17;45;0;7.402818e-17;7.402486e-17;0;0;2.106199e-18;-1.110223e-16;2.106199e-18;2.150441;-1.110223e-16;1.110223e-16;0
-11.825405;5.084804;2.559863;0;0;0;0;-1.110223e-16;-1.110223e-16;3.499131e-17;0;0;0;0;-7.603099e-17;-1.460136e-16;3.499131e-17;45;0;4.665508e-17;8.43251e-17;-1.110223e-16;6.785806e-17;2.124559e-18;-1.110223e-16;-6.57335e-17;2.531511;-2.220446e-16;2.220446e-16;0
-10.212419;5.084804;2.872357;0;0;0;0;2.220446e-16;-1.110223e-16;1.066728e-18;0;0;0;0;2.22048e-16;-1.110257e-16;1.665369e-16;45;0;2.220492e-16;1.958288e-16;2.220446e-16;1.784825e-24;2.133454e-18;-1.110223e-16;2.133452e-18;2.873606;1.110223e-16;-1.110223e-16;0
-8.599433;5.084804;3.190346;0;0;0;0;0;-1.110223e-16;-9.791266e-18;0;0;0;0;8.568965e-19;-1.118792e-16;5.636805e-17;45;0;7.51574e-17;7.48734e-17;0;-2.171419e-17;2.131655e-18;-1.110223e-16;2.384584e-17;3.19627;-1.110223e-16;1.110223e-16;0
-6.986447;5.084804;3.520787;0;0;0;0;0;0;1.085437e-17;0;0;0;0;1.085437e-17;-1.085437e-17;1.085437e-17;45;0;1.447249e-17;1.253354e-17;0;2.170873e-17;0;0;-2.170873e-17;3.501776;0;0;0
-5.373461;5.084804;3.788536;0;0;0;0;2.220446e-16;2.220446e-16;-1.754552e-18;0;0;0;0;2.237992e-16;2.202901e-16;1.754552e-18;45;0;2.339402e-18;1.480436e-16;2.220446e-16;-1.355864e-18;-2.15324e-18;2.220446e-16;-7.973755e-19;3.763004;4.440892e-16;-4.440892e-16;0
-3.760475;5.084804;3.978506;0;0;0;0;-1.110223e-16;2.220446e-16;-5.413362e-19;0;0;0;0;2.220455e-16;-1.110232e-16;1.665343e-16;45;0;2.220458e-16;1.958259e-16;-1.110223e-16;-2.837959e-22;-1.082388e-18;2.220446e-16;-1.082105e-18;3.954332;1.110223e-16;-1.110223e-16;0
-2.147489;5.084804;4.097503;0;0;0;0;-1.110223e-16;2.220446e-16;-2.037038e-19;0;0;0;0;2.220447e-16;-1.110224e-16;1.665336e-16;45;0;2.220448e-16;1.958251e-16;-1.110223e-16;6.782789e-19;-1.085687e-18;2.220446e-16;-1.763966e-18;4.076883;1.110223e-16;-1.110223e-16;0
-0.534503;5.084804;4.156803;0;0;0;0;0;2.220446e-16;1.058321e-17;0;0;0;0;2.225479e-16;-5.032817e-19;1.115256e-16;45;0;1.487008e-16;1.485333e-16;0;2.170978e-17;-5.433654e-19;2.220446e-16;-2.225315e-17;4.152991;2.220446e-16;-2.220446e-16;0
1.078483;5.084804;4.208023;0;0;0;0;0;-1.110223e-16;4.41246e-19;0;0;0;0;1.753656e-21;-1.110241e-16;5.55129e-17;45;0;7.401721e-17;7.401662e-17;0;3.391945e-19;5.432975e-19;-1.110223e-16;2.04103e-19;4.21291;-1.110223e-16;1.110223e-16;0
2.691469;5.084804;4.277428;0;0;0;0;0;0;-1.093946e-17;0;0;0;0;1.093946e-17;-1.093946e-17;1.093946e-17;45;0;1.458595e-17;1.26318e-17;0;-2.187892e-17;0;0;2.187892e-17;4.252622;0;0;0
4.304455;5.084804;4.27111;0;0;0;0;0;2.220446e-16;1.099097e-17;0;0;0;0;2.225873e-16;-5.42715e-19;1.11565e-16;45;0;1.487534e-16;1.485728e-16;0;2.171018e-17;2.717655e-19;2.220446e-16;-2.143841e-17;4.25208;2.220446e-16;-2.220446e-16;0
5.917441;5.084804;4.1971;0;0;0;0;0;-1.110223e-16;-1.112583e-17;0;0;0;0;1.10397e-18;-1.121263e-16;5.661512e-17;45;0;7.548683e-17;7.512155e-17;0;-2.170884e-17;-5.428225e-19;-1.110223e-16;2.116601e-17;4.191491;-1.110223e-16;1.110223e-16;0
7.530427;5.084804;4.089205;0;0;0;0;2.220446e-16;-1.110223e-16;1.363519e-19;0;0;0;0;2.220447e-16;-1.110224e-16;1.665335e-16;45;0;2.220447e-16;1.95825e-16;2.220446e-16;1.356763e-18;-1.084059e-18;-1.110223e-16;-2.440822e-18;4.08347;1.110223e-16;-1.110223e-16;0
9.143413;5.084804;3.949333;0;0;0;0;2.220446e-16;-1.110223e-16;1.377637e-19;0;0;0;0;2.220447e-16;-1.110224e-16;1.665335e-16;45;0;2.220447e-16;1.95825e-16;2.220446e-16;1.356929e-18;-1.081401e-18;-1.110223e-16;-2.43833e-18;3.933629;1.110223e-16;-1.110223e-16;0
10.756399;5.084804;3.755482;0;0;0;0;-1.110223e-16;-1.110223e-16;9.642074e-18;0;0;0;0;-1.013802e-16;-1.206644e-16;9.642074e-18;45;0;1.28561e-17;7.484758e-17;-1.110223e-16;2.036173e-17;-1.077577e-18;-1.110223e-16;-2.14393e-17;3.740639;-2.220446e-16;2.220446e-16;0
12.369385;5.084804;3.515909;0;0;0;0;-1.110223e-16;0;-1.357667e-18;0;0;0;0;1.660012e-20;-1.110389e-16;5.552775e-17;45;0;7.4037e-17;7.403147e-17;-1.110223e-16;-2.715334e-18;0;0;2.715334e-18;3.502921;-1.110223e-16;1.110223e-16;0
13.982371;5.084804;3.238164;0;0;0;0;2.220446e-16;2.220446e-16;-8.434176e-18;0;0;0;0;2.304788e-16;2.136104e-16;8.434176e-18;45;0;1.124557e-17;1.483498e-16;2.220446e-16;-1.900691e-17;2.138559e-18;2.220446e-16;2.114547e-17;3.224963;4.440892e-16;-4.440892e-16;0
15.595357;5.084804;2.923338;0;0;0;0;-1.110223e-16;2.220446e-16;-2.200779e-17;0;0;0;0;2.234925e-16;-1.124702e-16;1.679814e-16;45;0;2.239751e-16;1.97467e-16;-1.110223e-16;-4.614354e-17;2.127954e-18;2.220446e-16;4.827149e-17;2.905514;1.110223e-16;-1.110223e-16;0
17.208343;5.084804;2.564136;0;0;0;0;0;0;3.25622e-17;0;0;0;0;3.25622e-17;-3.25622e-17;3.25622e-17;45;0;4.341627e-17;3.759959e-17;0;6.51244e-17;0;0;-6.51244e-17;2.538876;0;0;0
18.821329;5.084804;2.14684;0;0;0;0;0;-1.110223e-16;-1.047654e-18;0;0;0;0;9.885236e-21;-1.110322e-16;5.552104e-17;45;0;7.402805e-17;7.402476e-17;0;0;-2.095308e-18;-1.110223e-16;-2.095308e-18;2.119742;-1.110223e-16;1.110223e-16;0
20.434315;5.084804;1.670614;0;0;0;0;-1.110223e-16;0;4.858219e-22;0;0;0;0;2.125906e-27;-1.110223e-16;5.551115e-17;45;0;7.401487e-17;7.401487e-17;-1.110223e-16;9.716439e-22;0;0;-9.716439e-22;1.646323;-1.110223e-16;1.110223e-16;0
22.047301;5.084804;1.141186;0;0;0;0;-1.110223e-16;0;-1.357994e-18;0;0;0;0;1.660812e-20;-1.110389e-16;5.552776e-17;45;0;7.403701e-17;7.403148e-17;-1.110223e-16;-2.715988e-18;0;0;2.715988e-18;1.121129;-1.110223e-16;1.110223e-16;0
23.660287;5.084804;0.562665;0;0;0;0;0;-1.110223e-16;-6.79555e-19;0;0;0;0;4.159323e-21;-1.110265e-16;5.551531e-17;45;0;7.402042e-17;7.401903e-17;0;2.716743e-18;-4.075853e-18;-1.110223e-16;-6.792595e-18;0.546679;-1.110223e-16;1.110223e-16;0
25.273273;5.084804;-0.0615;0;0;0;0;-1.110223e-16;-1.110223e-16;-2.374789e-17;0;0;0;0;-8.727442e-17;-1.347702e-16;2.374789e-17;45;0;3.166385e-17;7.89313e-17;-1.110223e-16;-4.346076e-17;-4.035011e-18;-1.110223e-16;3.942575e-17;-0.076524;-2.220446e-16;2.220446e-16;0
26.886259;5.084804;-0.733435;0;0;0;0;0;0;0;0;0;0;0;0;0;0;45;0;0;0;0;0;0;0;0;-0.748348;0;0;0
28.499246;5.084804;-1.452911;0;0;0;0;-1.110223e-16;0;-2.715664e-18;0;0;0;0;6.638689e-20;-1.110887e-16;5.557754e-17;45;0;7.410339e-17;7.408126e-17;-1.110223e-16;-5.431329e-18;0;0;5.431329e-18;-1.472601;-1.110223e-16;1.110223e-16;0
30.112232;5.084804;-2.231673;0;0;0;0;-1.110223e-16;0;-2.716573e-18;0;0;0;0;6.64313e-20;-1.110887e-16;5.557758e-17;45;0;7.410345e-17;7.408131e-17;-1.110223e-16;-5.433146e-18;0;0;5.433146e-18;-2.254011;-1.110223e-16;1.110223e-16;0
31.725218;5.084804;-3.075077;0;0;0;0;0;0;1.086883e-17;0;0;0;0;1.086883e-17;-1.086883e-17;1.086883e-17;45;0;1.449177e-17;1.255024e-17;0;2.173766e-17;0;0;-2.173766e-17;-3.100592;0;0;0
33.338204;5.084804;-3.991717;0;0;0;0;2.220446e-16;2.220446e-16;-3.787488e-18;0;0;0;0;2.258321e-16;2.182571e-16;3.787488e-18;45;0;5.049984e-18;1.480943e-16;2.220446e-16;-1.826416e-17;1.068918e-17;2.220446e-16;2.895335e-17;-3.992602;4.440892e-16;-4.440892e-16;0
-44.085126;3.471818;-16.871845;0;0;0;0;2.220446e-16;0;-3.308936e-17;0;0;0;0;2.268707e-16;-4.826123e-18;1.158484e-16;45;0;1.544646e-16;1.528813e-16;2.220446e-16;-6.617872e-17;0;0;6.617872e-17;-16.866991;2.220446e-16;-2.220446e-16;0
-42.47214;3.471818;-15.106146;0;0;0;0;-2.220446e-16;-1.110223e-16;1.783376e-17;0;0;0;0;-1.08228e-16;-2.248389e-16;5.830549e-17;45;0;7.774066e-17;1.298409e-16;-2.220446e-16;3.267967e-17;2.987838e-18;-1.110223e-16;-2.969184e-17;-15.143574;-3.330669e-16;3.330669e-16;0
-40.859154;3.471818;-13.46132;0;0;0;0;2.220446e-16;-1.110223e-16;-1.479017e-17;0;0;0;0;2.227001e-16;-1.116778e-16;1.671889e-16;45;0;2.229186e-16;1.965682e-16;2.220446e-16;-3.267227e-17;3.091926e-18;-1.110223e-16;3.57642e-17;-13.493549;1.110223e-16;-1.110223e-16;0
-39.246168;3.471818;-11.918481;0;0;0;0;-2.220446e-16;2.220446e-16;-1.135607e-17;0;0;0;0;2.223348e-16;-2.223348e-16;2.223348e-16;45;0;2.964464e-16;2.567301e-16;-2.220446e-16;-1.633577e-17;-6.376376e-18;2.220446e-16;9.959391e-18;-11.950082;0;0;0
-37.633182;3.471818;-10.469909;0;0;0;0;0;0;0;0;0;0;0;0;0;0;45;0;0;0;0;0;0;0;0;-10.50716;0;0;0
-36.020196;3.471818;-9.12704;0;0;0;0;0;0;0;0;0;0;0;0;0;0;45;0;0;0;0;0;0;0;0;-9.1633;0;0;0
-34.40721;3.471818;-7.880143;0;0;0;0;-1.110223e-16;-1.110223e-16;4.46612e-18;0;0;0;0;-1.065562e-16;-1.154884e-16;4.46612e-18;45;0;5.954827e-18;7.419431e-17;-1.110223e-16;5.44376e-18;3.48848e-18;-1.110223e-16;-1.955281e-18;-7.916395;-2.220446e-16;2.220446e-16;0
-32.794224;3.471818;-6.73108;0;0;0;0;0;-1.110223e-16;1.792076e-18;0;0;0;0;2.891943e-20;-1.110512e-16;5.554007e-17;45;0;7.405343e-17;7.404379e-17;0;0;3.584153e-18;-1.110223e-16;3.584153e-18;-6.762208;-1.110223e-16;1.110223e-16;0
-31.181238;3.471818;-5.670697;0;0;0;0;-1.110223e-16;-1.110223e-16;4.548684e-18;0;0;0;0;-1.064736e-16;-1.15571e-16;4.548684e-18;45;0;6.064911e-18;7.4201e-17;-1.110223e-16;5.440168e-18;3.657199e-18;-1.110223e-16;-1.78297e-18;-5.686632;-2.220446e-16;2.220446e-16;0
-29.568251;3.471818;-4.65879;0;0;0;0;0;0;-1.087772e-17;0;0;0;0;1.087772e-17;-1.087772e-17;1.087772e-17;45;0;1.450363e-17;1.256051e-17;0;-2.175544e-17;0;0;2.175544e-17;-4.68313;0;0;0
-27.955265;3.471818;-3.718882;0;0;0;0;-1.110223e-16;0;2.718605e-18;0;0;0;0;6.653065e-20;-1.110888e-16;5.557768e-17;45;0;7.410358e-17;7.408141e-17;-1.110223e-16;5.43721e-18;0;0;-5.43721e-18;-3.747696;-1.110223e-16;1.110223e-16;0
-26.342279;3.471818;-2.859208;0;0;0;0;0;2.220446e-16;8.940977e-18;0;0;0;0;2.22404e-16;-3.594407e-19;1.113817e-16;45;0;1.48509e-16;1.483893e-16;0;2.174854e-17;-3.866583e-18;2.220446e-16;-2.561512e-17;-2.882525;2.220446e-16;-2.220446e-16;0
-24.729293;3.471818;-2.06041;0;0;0;0;0;0;0;0;0;0;0;0;0;0;45;0;0;0;0;0;0;0;0;-2.081303;0;0;0
-23.116307;3.471818;-1.316252;0;0;0;0;-1.110223e-16;0;2.716484e-18;0;0;0;0;6.642696e-20;-1.110887e-16;5.557758e-17;45;0;7.410344e-17;7.40813e-17;-1.110223e-16;5.432969e-18;0;0;-5.432969e-18;-1.33378;-1.110223e-16;1.110223e-16;0
-21.503321;3.471818;-0.619056;0;0;0;0;0;0;-2.173385e-17;0;0;0;0;2.173385e-17;-2.173385e-17;2.173385e-17;45;0;2.897847e-17;2.509609e-17;0;-4.34677e-17;0;0;4.34677e-17;-0.632094;0;0;0
-19.890335;3.471818;0.043855;0;0;0;0;0;-1.110223e-16;2.025419e-18;0;0;0;0;3.693815e-20;-1.110592e-16;5.554809e-17;45;0;7.406412e-17;7.405181e-17;0;0;4.050839e-18;-1.110223e-16;4.050839e-18;0.019894;-1.110223e-16;1.110223e-16;0
-18.277349;3.471818;0.639672;0;0;0;0;-1.110223e-16;-1.110223e-16;3.412558e-18;0;0;0;0;-1.076097e-16;-1.144349e-16;3.412558e-18;45;0;4.550078e-18;7.411969e-17;-1.110223e-16;2.714712e-18;4.110405e-18;-1.110223e-16;1.395693e-18;0.611975;-2.220446e-16;2.220446e-16;0
-16.664363;3.471818;1.155687;0;0;0;0;0;2.220446e-16;-7.241251e-19;0;0;0;0;2.22047e-16;-2.36147e-21;1.110247e-16;45;0;1.480329e-16;1.480321e-16;0;2.714784e-18;-4.163034e-18;2.220446e-16;-6.877818e-18;1.135699;2.220446e-16;-2.220446e-16;0
-15.051377;3.471818;1.610348;0;0;0;0;2.220446e-16;2.220446e-16;-1.430897e-17;0;0;0;0;2.363536e-16;2.077356e-16;1.430897e-17;45;0;1.907863e-17;1.48949e-16;2.220446e-16;-2.442771e-17;-4.190236e-18;2.220446e-16;2.023747e-17;1.60704;4.440892e-16;-4.440892e-16;0
-13.438391;3.471818;2.049969;0;0;0;0;0;0;-8.074868e-23;0;0;0;0;8.074868e-23;-8.074868e-23;8.074868e-23;45;0;1.076649e-22;9.324054e-23;0;-1.614974e-22;0;0;1.614974e-22;2.034823;0;0;0
-11.825405;3.471818;2.441096;0;0;0;0;-1.110223e-16;-1.110223e-16;1.326897e-17;0;0;0;0;-9.775334e-17;-1.242913e-16;1.326897e-17;45;0;1.769195e-17;7.558409e-17;-1.110223e-16;2.441403e-17;2.123904e-18;-1.110223e-16;-2.229012e-17;2.416489;-2.220446e-16;2.220446e-16;0
-10.212419;3.471818;2.761462;0;0;0;0;2.220446e-16;-1.110223e-16;1.056328e-17;0;0;0;0;2.223793e-16;-1.11357e-16;1.668681e-16;45;0;2.224908e-16;1.962044e-16;2.220446e-16;1.899403e-17;2.13254e-18;-1.110223e-16;-1.686148e-17;2.759978;1.110223e-16;-1.110223e-16;0
-8.599433;3.471818;3.08421;0;0;0;0;2.220446e-16;0;-1.221503e-17;0;0;0;0;2.227146e-16;-6.699466e-19;1.116923e-16;45;0;1.48923e-16;1.487002e-16;2.220446e-16;-2.443005e-17;0;0;2.443005e-17;3.083368;2.220446e-16;-2.220446e-16;0
-6.986447;3.471818;3.409773;0;0;0;0;0;0;-1.08564e-17;0;0;0;0;1.08564e-17;-1.08564e-17;1.08564e-17;45;0;1.44752e-17;1.253589e-17;0;-2.171279e-17;0;0;2.171279e-17;3.388197;0;0;0
-5.373461;3.471818;3.672018;0;0;0;0;-1.110223e-16;0;1.356417e-18;0;0;0;0;1.656958e-20;-1.110389e-16;5.552772e-17;45;0;7.403696e-17;7.403144e-17;-1.110223e-16;2.712834e-18;0;0;-2.712834e-18;3.648265;-1.110223e-16;1.110223e-16;0
-3.760475;3.471818;3.862552;0;0;0;0;2.220446e-16;0;1.017322e-17;0;0;0;0;2.225097e-16;-4.651229e-19;1.114874e-16;45;0;1.486499e-16;1.484951e-16;2.220446e-16;2.034644e-17;0;0;-2.034644e-17;3.840536;2.220446e-16;-2.220446e-16;0
-2.147489;3.471818;3.986949;0;0;0;0;2.220446e-16;0;-3.390686e-19;0;0;0;0;2.220451e-16;-5.177663e-22;1.110228e-16;45;0;1.480304e-16;1.480303e-16;2.220446e-16;-6.781371e-19;0;0;6.781371e-19;3.964424;2.220446e-16;-2.220446e-16;0
-0.534503;3.471818;4.046561;0;0;0;0;0;2.220446e-16;1.057901e-17;0;0;0;0;2.225475e-16;-5.028834e-19;1.115252e-16;45;0;1.487002e-16;1.485329e-16;0;2.170141e-17;-5.43392e-19;2.220446e-16;-2.22448e-17;4.040245;2.220446e-16;-2.220446e-16;0
1.078483;3.471818;4.092995;0;0;0;0;-1.110223e-16;2.220446e-16;-2.179844e-17;0;0;0;0;2.234652e-16;-1.124429e-16;1.67954e-16;45;0;2.239387e-16;1.97436e-16;-1.110223e-16;-4.305357e-17;-5.433043e-19;2.220446e-16;4.251027e-17;4.099305;1.110223e-16;-1.110223e-16;0
2.691469;3.471818;4.166603;0;0;0;0;0;0;2.17018e-17;0;0;0;0;2.17018e-17;-2.17018e-17;2.17018e-17;45;0;2.893573e-17;2.505908e-17;0;4.34036e-17;0;0;-4.34036e-17;4.139962;0;0;0
4.304455;3.471818;4.168206;0;0;0;0;-1.110223e-16;2.220446e-16;5.106468e-20;0;0;0;0;2.220446e-16;-1.110223e-16;1.665335e-16;45;0;2.220446e-16;1.958249e-16;-1.110223e-16;-1.696499e-19;2.717792e-19;2.220446e-16;4.414291e-19;4.142125;1.110223e-16;-1.110223e-16;0
5.917441;3.471818;4.097036;0;0;0;0;0;0;0;0;0;0;0;0;0;0;45;0;0;0;0;0;0;0;0;4.082634;0;0;0
7.530427;3.471818;3.985603;0;0;0;0;-1.110223e-16;-1.110223e-16;9.978324e-18;0;0;0;0;-1.01044e-16;-1.210006e-16;9.978324e-18;45;0;1.330443e-17;7.490632e-17;-1.110223e-16;2.104057e-17;-1.083925e-18;-1.110223e-16;-2.21245e-17;3.973696;-2.220446e-16;2.220446e-16;0
9.143413;3.471818;3.842407;0;0;0;0;-1.110223e-16;0;-1.153365e-17;0;0;0;0;1.185524e-18;-1.122078e-16;5.669667e-17;45;0;7.559557e-17;7.520351e-17;-1.110223e-16;-2.30673e-17;0;0;2.30673e-17;3.822493;-1.110223e-16;1.110223e-16;0
10.756399;3.471818;3.64763;0;0;0;0;0;0;0;0;0;0;0;0;0;0;45;0;0;0;0;0;0;0;0;3.630368;0;0;0
12.369385;3.471818;3.41281;0;0;0;0;0;0;-6.785415e-19;0;0;0;0;6.785415e-19;-6.785415e-19;6.785415e-19;45;0;9.047221e-19;7.835123e-19;0;-1.357083e-18;0;0;1.357083e-18;3.393901;0;0;0
13.982371;3.471818;3.132637;0;0;0;0;0;0;2.171441e-17;0;0;0;0;2.171441e-17;-2.171441e-17;2.171441e-17;45;0;2.895255e-17;2.507364e-17;0;4.342882e-17;0;0;-4.342882e-17;3.115259;0;0;0
15.595357;3.471818;2.807583;0;0;0;0;0;2.220446e-16;-1.95801e-17;0;0;0;0;2.23758e-16;-1.713371e-18;1.127357e-16;45;0;1.503142e-16;1.497464e-16;0;-4.341188e-17;4.251679e-18;2.220446e-16;4.766356e-17;2.791487;2.220446e-16;-2.220446e-16;0
17.208343;3.471818;2.436232;0;0;0;0;2.220446e-16;0;-9.491163e-18;0;0;0;0;2.224496e-16;-4.049555e-19;1.114273e-16;45;0;1.485697e-16;1.484349e-16;2.220446e-16;-1.898233e-17;0;0;1.898233e-17;2.4196;2.220446e-16;-2.220446e-16;0
18.821329;3.471818;2.013733;0;0;0;0;0;0;1.08444e-17;0;0;0;0;1.08444e-17;-1.08444e-17;1.08444e-17;45;0;1.44592e-17;1.252203e-17;0;2.168879e-17;0;0;-2.168879e-17;1.99829;0;0;0
20.434315;3.471818;1.546091;0;0;0;0;2.220446e-16;0;-9.492332e-18;0;0;0;0;2.224497e-16;-4.050551e-19;1.114274e-16;45;0;1.485698e-16;1.48435e-16;2.220446e-16;-1.898466e-17;0;0;1.898466e-17;1.52652;2.220446e-16;-2.220446e-16;0
22.047301;3.471818;1.027764;0;0;0;0;0;0;1.085476e-17;0;0;0;0;1.085476e-17;-1.085476e-17;1.085476e-17;45;0;1.447302e-17;1.2534e-17;0;2.170953e-17;0;0;-2.170953e-17;1.004804;0;0;0
23.660287;3.471818;0.455204;0;0;0;0;2.220446e-16;0;2.715115e-18;0;0;0;0;2.220778e-16;-3.319489e-20;1.110555e-16;45;0;1.48074e-16;1.480629e-16;2.220446e-16;5.430229e-18;0;0;-5.430229e-18;0.431464;2.220446e-16;-2.220446e-16;0
25.273273;3.471818;-0.173056;0;0;0;0;0;0;0;0;0;0;0;0;0;0;45;0;0;0;0;0;0;0;0;-0.193397;0;0;0
26.886259;3.471818;-0.850949;0;0;0;0;2.220446e-16;-1.110223e-16;2.24467e-17;0;0;0;0;2.235506e-16;-1.125283e-16;1.680394e-16;45;0;2.240525e-16;1.975328e-16;2.220446e-16;4.888241e-17;-3.989012e-18;-1.110223e-16;-5.287142e-17;-0.867928;1.110223e-16;-1.110223e-16;0
28.499246;3.471818;-1.573927;0;0;0;0;0;2.220446e-16;1.970394e-18;0;0;0;0;2.220621e-16;-1.748363e-20;1.110398e-16;45;0;1.48053e-16;1.480472e-16;0;0;3.940788e-18;2.220446e-16;3.940788e-18;-1.593987;2.220446e-16;-2.220446e-16;0
30.112232;3.471818;-2.355145;0;0;0;0;0;2.220446e-16;-6.981359e-18;0;0;0;0;2.222639e-16;-2.192861e-19;1.112416e-16;45;0;1.483221e-16;1.482491e-16;0;-2.173067e-17;7.767957e-18;2.220446e-16;2.949863e-17;-2.375228;2.220446e-16;-2.220446e-16;0
31.725218;3.471818;-3.1961;0;0;0;0;2.220446e-16;2.220446e-16;1.739927e-17;0;0;0;0;2.394439e-16;2.046453e-16;1.739927e-17;45;0;2.319902e-17;1.493869e-16;2.220446e-16;2.716924e-17;7.629294e-18;2.220446e-16;-1.953995e-17;-3.222878;4.440892e-16;-4.440892e-16;0
33.338204;3.471818;-4.118707;0;0;0;0;-2.220446e-16;-1.110223e-16;-2.513717e-17;0;0;0;0;-1.055961e-16;-2.274708e-16;6.093739e-17;45;0;8.124985e-17;1.314424e-16;-2.220446e-16;-4.493936e-17;-5.334981e-18;-1.110223e-16;3.960438e-17;-4.117319;-3.330669e-16;3.330669e-16;0
-44.085126;1.858832;-16.971126;0;0;0;0;2.220446e-16;0;-4.8508e-18;0;0;0;0;2.221505e-16;-1.059204e-19;1.111282e-16;45;0;1.48171e-16;1.481357e-16;2.220446e-16;-9.7016e-18;0;0;9.7016e-18;-16.971721;2.220446e-16;-2.220446e-16;0
-42.47214;1.858832;-15.21195;0;0;0;0;0;0;1.089506e-17;0;0;0;0;1.089506e-17;-1.089506e-17;1.089506e-17;45;0;1.452675e-17;1.258054e-17;0;2.179013e-17;0;0;-2.179013e-17;-15.251345;0;0;0
-40.859154;1.858832;-13.576701;0;0;0;0;0;2.220446e-16;-3.095604e-18;0;0;0;0;2.220878e-16;-4.314855e-20;1.110654e-16;45;0;1.480873e-16;1.480729e-16;0;0;-6.191208e-18;2.220446e-16;-6.191208e-18;-13.604388;2.220446e-16;-2.220446e-16;0
-39.246168;1.858832;-12.032609;0;0;0;0;-2.220446e-16;2.220446e-16;-1.952366e-17;0;0;0;0;2.229013e-16;-2.229013e-16;2.229013e-16;45;0;2.972017e-16;2.573842e-16;-2.220446e-16;-3.267084e-17;-6.376471e-18;2.220446e-16;2.629437e-17;-12.062667;0;0;0
-37.633182;1.858832;-10.581366;0;0;0;0;0;2.220446e-16;1.84893e-17;0;0;0;0;2.235737e-16;-1.529046e-18;1.125513e-16;45;0;1.500685e-16;1.495614e-16;0;4.354836e-17;-6.569758e-18;2.220446e-16;-5.011812e-17;-10.618125;2.220446e-16;-2.220446e-16;0
-36.020196;1.858832;-9.234028;0;0;0;0;0;0;-1.088554e-17;0;0;0;0;1.088554e-17;-1.088554e-17;1.088554e-17;45;0;1.451405e-17;1.256954e-17;0;-2.177108e-17;0;0;2.177108e-17;-9.270752;0;0;0
-34.40721;1.858832;-7.988169;0;0;0;0;0;2.220446e-16;-3.486701e-18;0;0;0;0;2.220993e-16;-5.473713e-20;1.11077e-16;45;0;1.481027e-16;1.480845e-16;0;0;-6.973401e-18;2.220446e-16;-6.973401e-18;-8.020363;2.220446e-16;-2.220446e-16;0
-32.794224;1.858832;-6.836694;0;0;0;0;-1.110223e-16;0;-5.993202e-22;0;0;0;0;3.235242e-27;-1.110223e-16;5.551115e-17;45;0;7.401487e-17;7.401487e-17;-1.110223e-16;-1.19864e-21;0;0;1.19864e-21;-6.866287;-1.110223e-16;1.110223e-16;0
-31.181238;1.858832;-5.778562;0;0;0;0;2.220446e-16;-1.110223e-16;-8.896471e-19;0;0;0;0;2.22047e-16;-1.110247e-16;1.665358e-16;45;0;2.220478e-16;1.958276e-16;2.220446e-16;-5.440825e-18;3.66153e-18;-1.110223e-16;9.102355e-18;-5.7935;1.110223e-16;-1.110223e-16;0
-29.568251;1.858832;-4.769831;0;0;0;0;-1.110223e-16;-1.110223e-16;-6.296253e-18;0;0;0;0;-1.04726e-16;-1.173185e-16;6.296253e-18;45;0;8.395005e-18;7.437108e-17;-1.110223e-16;-1.631672e-17;3.724213e-18;-1.110223e-16;2.004093e-17;-4.79364;-2.220446e-16;2.220446e-16;0
-27.955265;1.858832;-3.832825;0;0;0;0;-1.110223e-16;0;1.359077e-17;0;0;0;0;1.639499e-18;-1.126618e-16;5.715065e-17;45;0;7.620086e-17;7.566029e-17;-1.110223e-16;2.718153e-17;0;0;-2.718153e-17;-3.859453;-1.110223e-16;1.110223e-16;0
-26.342279;1.858832;-2.972071;0;0;0;0;0;-1.110223e-16;3.454515e-17;0;0;0;0;9.871227e-18;-1.208935e-16;6.538238e-17;45;0;8.717651e-17;8.407947e-17;0;6.522406e-17;3.866236e-18;-1.110223e-16;-6.135783e-17;-2.994373;-1.110223e-16;1.110223e-16;0
-24.729293;1.858832;-2.17576;0;0;0;0;2.220446e-16;0;1.086891e-17;0;0;0;0;2.225754e-16;-5.307557e-19;1.115531e-16;45;0;1.487374e-16;1.485608e-16;2.220446e-16;2.173782e-17;0;0;-2.173782e-17;-2.194056;2.220446e-16;-2.220446e-16;0
-23.116307;1.858832;-1.435746;0;0;0;0;0;-1.110223e-16;1.984621e-18;0;0;0;0;3.546552e-20;-1.110578e-16;5.554661e-17;45;0;7.406216e-17;7.405033e-17;0;0;3.969243e-18;-1.110223e-16;3.969243e-18;-1.447324;-1.110223e-16;1.110223e-16;0
-21.503321;1.858832;-0.733514;0;0;0;0;0;2.220446e-16;-2.001939e-18;0;0;0;0;2.220627e-16;-1.804788e-20;1.110404e-16;45;0;1.480538e-16;1.480478e-16;0;0;-4.003878e-18;2.220446e-16;-4.003878e-18;-0.745221;2.220446e-16;-2.220446e-16;0
-19.890335;1.858832;-0.068095;0;0;0;0;-1.110223e-16;0;-8.148909e-18;0;0;0;0;5.949325e-19;-1.116172e-16;5.610609e-17;45;0;7.480811e-17;7.461059e-17;-1.110223e-16;-1.629782e-17;0;0;1.629782e-17;-0.092385;-1.110223e-16;1.110223e-16;0
-18.277349;1.858832;0.524351;0;0;0;0;-1.110223e-16;0;2.715373e-18;0;0;0;0;6.637266e-20;-1.110887e-16;5.557752e-17;45;0;7.410337e-17;7.408125e-17;-1.110223e-16;5.430746e-18;0;0;-5.430746e-18;0.498921;-1.110223e-16;1.110223e-16;0
-16.664363;1.858832;1.040977;0;0;0;0;-1.110223e-16;0;1.357428e-17;0;0;0;0;1.635582e-18;-1.126579e-16;5.714673e-17;45;0;7.619564e-17;7.565634e-17;-1.110223e-16;2.714857e-17;0;0;-2.714857e-17;1.021434;-1.110223e-16;1.110223e-16;0
-15.051377;1.858832;1.499097;0;0;0;0;-1.110223e-16;-1.110223e-16;1.326461e-17;0;0;0;0;-9.775769e-17;-1.242869e-16;1.326461e-17;45;0;1.768614e-17;7.558307e-17;-1.110223e-16;2.443394e-17;2.095277e-18;-1.110223e-16;-2.233866e-17;1.491975;-2.220446e-16;2.220446e-16;0
-13.438391;1.858832;1.934383;0;0;0;0;2.220446e-16;2.220446e-16;-1.432161e-17;0;0;0;0;2.363662e-16;2.07723e-16;1.432161e-17;45;0;1.909549e-17;1.489506e-16;2.220446e-16;-2.442853e-17;-4.214697e-18;2.220446e-16;2.021383e-17;1.918305;4.440892e-16;-4.440892e-16;0
-11.825405;1.858832;2.316978;0;0;0;0;0;0;0;0;0;0;0;0;0;0;45;0;0;0;0;0;0;0;0;2.299077;0;0;0
-10.212419;1.858832;2.640562;0;0;0;0;0;2.220446e-16;-2.276775e-17;0;0;0;0;2.243551e-16;-2.310491e-18;1.133328e-16;45;0;1.511104e-16;1.503462e-16;0;-4.34042e-17;-2.131299e-18;2.220446e-16;4.12729e-17;2.644072;2.220446e-16;-2.220446e-16;0
-8.599433;1.858832;2.972924;0;0;0;0;2.220446e-16;2.220446e-16;-2.42219e-18;0;0;0;0;2.244668e-16;2.196224e-16;2.42219e-18;45;0;3.229587e-18;1.480562e-16;2.220446e-16;-2.713608e-18;-2.130772e-18;2.220446e-16;5.828362e-19;2.970009;4.440892e-16;-4.440892e-16;0
-6.986447;1.858832;3.297895;0;0;0;0;2.220446e-16;-1.110223e-16;1.069963e-18;0;0;0;0;2.22048e-16;-1.110257e-16;1.665369e-16;45;0;2.220492e-16;1.958288e-16;2.220446e-16;4.836673e-22;2.139442e-18;-1.110223e-16;2.138958e-18;3.276011;1.110223e-16;-1.110223e-16;0
-5.373461;1.858832;3.557286;0;0;0;0;2.220446e-16;2.220446e-16;-1.260949e-17;0;0;0;0;2.346541e-16;2.094351e-16;1.260949e-17;45;0;1.681266e-17;1.487441e-16;2.220446e-16;-2.306521e-17;-2.153772e-18;2.220446e-16;2.091144e-17;3.534904;4.440892e-16;-4.440892e-16;0
-3.760475;1.858832;3.747031;0;0;0;0;0;0;0;0;0;0;0;0;0;0;45;0;0;0;0;0;0;0;0;3.726227;0;0;0
-2.147489;1.858832;3.874444;0;0;0;0;2.220446e-16;0;-3.389141e-19;0;0;0;0;2.220451e-16;-5.172947e-22;1.110228e-16;45;0;1.480304e-16;1.480303e-16;2.220446e-16;-6.778282e-19;0;0;6.778282e-19;3.848238;2.220446e-16;-2.220446e-16;0
-0.534503;1.858832;3.929467;0;0;0;0;0;0;0;0;0;0;0;0;0;0;45;0;0;0;0;0;0;0;0;3.92143;0;0;0
1.078483;1.858832;3.969464;0;0;0;0;0;0;0;0;0;0;0;0;0;0;45;0;0;0;0;0;0;0;0;3.97868;0;0;0
2.691469;1.858832;4.046399;0;0;0;0;0;-1.110223e-16;1.097757e-17;0;0;0;0;1.075022e-18;-1.120973e-16;5.658618e-17;45;0;7.544823e-17;7.509246e-17;0;2.16834e-17;2.717396e-19;-1.110223e-16;-2.141166e-17;4.021415;-1.110223e-16;1.110223e-16;0
4.304455;1.858832;4.059435;0;0;0;0;-1.110223e-16;0;-8.473935e-20;0;0;0;0;6.467847e-23;-1.110224e-16;5.551122e-17;45;0;7.401496e-17;7.401493e-17;-1.110223e-16;-1.694787e-19;0;0;1.694787e-19;4.028067;-1.110223e-16;1.110223e-16;0
5.917441;1.858832;3.995812;0;0;0;0;2.220446e-16;0;3.389947e-19;0;0;0;0;2.220451e-16;-5.175408e-22;1.110228e-16;45;0;1.480304e-16;1.480303e-16;2.220446e-16;6.779894e-19;0;0;-6.779894e-19;3.971351;2.220446e-16;-2.220446e-16;0
7.530427;1.858832;3.880202;0;0;0;0;-1.110223e-16;2.220446e-16;2.028441e-19;0;0;0;0;2.220447e-16;-1.110224e-16;1.665336e-16;45;0;2.220448e-16;1.958251e-16;-1.110223e-16;-6.77988e-19;1.083676e-18;2.220446e-16;1.761664e-18;3.861531;1.110223e-16;-1.110223e-16;0
9.143413;1.858832;3.726569;0;0;0;0;0;0;2.169395e-17;0;0;0;0;2.169395e-17;-2.169395e-17;2.169395e-17;45;0;2.892527e-17;2.505001e-17;0;4.33879e-17;0;0;-4.33879e-17;3.707531;0;0;0
10.756399;1.858832;3.526005;0;0;0;0;0;0;-1.016795e-17;0;0;0;0;1.016795e-17;-1.016795e-17;1.016795e-17;45;0;1.355726e-17;1.174093e-17;0;-2.033589e-17;0;0;2.033589e-17;3.514362;0;0;0
12.369385;1.858832;3.297162;0;0;0;0;0;-1.110223e-16;-1.751895e-18;0;0;0;0;2.763745e-20;-1.110499e-16;5.553879e-17;45;0;7.405172e-17;7.40425e-17;0;-1.355876e-18;-2.147914e-18;-1.110223e-16;-7.920378e-19;3.277841;-1.110223e-16;1.110223e-16;0
13.982371;1.858832;3.019306;0;0;0;0;0;2.220446e-16;1.068493e-18;0;0;0;0;2.220497e-16;-5.141537e-21;1.110274e-16;45;0;1.480366e-16;1.480349e-16;0;0;2.136986e-18;2.220446e-16;2.136986e-18;2.998214;2.220446e-16;-2.220446e-16;0
15.595357;1.858832;2.690419;0;0;0;0;0;-1.110223e-16;-1.19101e-17;0;0;0;0;1.263301e-18;-1.122856e-16;5.677445e-17;45;0;7.569927e-17;7.52817e-17;0;-2.16958e-17;-2.124405e-18;-1.110223e-16;1.957139e-17;2.670853;-1.110223e-16;1.110223e-16;0
17.208343;1.858832;2.311572;0;0;0;0;0;0;0;0;0;0;0;0;0;0;45;0;0;0;0;0;0;0;0;2.294744;0;0;0
18.821329;1.858832;1.88255;0;0;0;0;0;-1.110223e-16;-3.463789e-17;0;0;0;0;9.920272e-18;-1.209426e-16;6.543142e-17;45;0;8.72419e-17;8.413032e-17;0;-6.508629e-17;-4.189486e-18;-1.110223e-16;6.089681e-17;1.87096;-1.110223e-16;1.110223e-16;0
20.434315;1.858832;1.412843;0;0;0;0;0;0;-1.355809e-18;0;0;0;0;1.355809e-18;-1.355809e-18;1.355809e-18;45;0;1.807745e-18;1.565553e-18;0;-2.711617e-18;0;0;2.711617e-18;1.399311;0;0;0
22.047301;1.858832;0.897063;0;0;0;0;0;0;1.084861e-17;0;0;0;0;1.084861e-17;-1.084861e-17;1.084861e-17;45;0;1.446482e-17;1.25269e-17;0;2.169723e-17;0;0;-2.169723e-17;0.88036;0;0;0
23.660287;1.858832;0.329806;0;0;0;0;0;0;-1.085377e-17;0;0;0;0;1.085377e-17;-1.085377e-17;1.085377e-17;45;0;1.44717e-17;1.253286e-17;0;-2.170754e-17;0;0;2.170754e-17;0.310195;0;0;0
25.273273;1.858832;-0.295957;0;0;0;0;0;2.220446e-16;1.287489e-17;0;0;0;0;2.227886e-16;-7.440365e-19;1.117663e-16;45;0;1.490218e-16;1.487744e-16;0;2.171777e-17;4.03202e-18;2.220446e-16;-1.768575e-17;-0.312684;2.220446e-16;-2.220446e-16;0
26.886259;1.858832;-0.97335;0;0;0;0;2.220446e-16;0;-1.28358e-22;0;0;0;0;2.220446e-16;-7.420223e-29;1.110223e-16;45;0;1.480297e-16;1.480297e-16;2.220446e-16;-2.56716e-22;0;0;2.56716e-22;-0.987895;2.220446e-16;-2.220446e-16;0
28.499246;1.858832;-1.696266;0;0;0;0;0;-1.110223e-16;-1.28321e-17;0;0;0;0;1.46385e-18;-1.124861e-16;5.6975e-17;45;0;7.596667e-17;7.548345e-17;0;-2.172548e-17;-3.938727e-18;-1.110223e-16;1.778675e-17;-1.716228;-1.110223e-16;1.110223e-16;0
30.112232;1.858832;-2.478223;0;0;0;0;2.220446e-16;-1.110223e-16;8.921772e-18;0;0;0;0;2.222834e-16;-1.112611e-16;1.667723e-16;45;0;2.22363e-16;1.960957e-16;2.220446e-16;2.172641e-17;-3.882864e-18;-1.110223e-16;-2.560927e-17;-2.49959;1.110223e-16;-1.110223e-16;0
31.725218;1.858832;-3.317727;0;0;0;0;-1.110223e-16;-1.110223e-16;-4.622626e-18;0;0;0;0;-1.063997e-16;-1.156449e-16;4.622626e-18;45;0;6.163501e-18;7.420709e-17;-1.110223e-16;-5.43152e-18;-3.813731e-18;-1.110223e-16;1.617789e-18;-3.349015;-2.220446e-16;2.220446e-16;0
33.338204;1.858832;-4.241534;0;0;0;0;2.220446e-16;-1.110223e-16;2.295719e-18;0;0;0;0;2.220604e-16;-1.110381e-16;1.665493e-16;45;0;2.220657e-16;1.958429e-16;2.220446e-16;9.928237e-18;-5.336798e-18;-1.110223e-16;-1.526503e-17;-4.244833;1.110223e-16;-1.110223e-16;0
-44.085126;0.245845;-17.072191;0;0;0;0;-1.110223e-16;2.220446e-16;-1.332813e-17;0;0;0;0;2.225771e-16;-1.115548e-16;1.670659e-16;45;0;2.227546e-16;1.964288e-16;-1.110223e-16;-1.834542e-17;-8.310836e-18;2.220446e-16;1.003459e-17;-17.075863;1.110223e-16;-1.110223e-16;0
-42.47214;0.245845;-15.314217;0;0;0;0;-2.220446e-16;0;-2.723929e-17;0;0;0;0;3.292747e-18;-2.253373e-16;1.143151e-16;45;0;1.524201e-16;1.513344e-16;-2.220446e-16;-5.447858e-17;0;0;5.447858e-17;-15.354182;-2.220446e-16;2.220446e-16;0
-40.859154;0.245845;-13.676616;0;0;0;0;-2.220446e-16;2.220446e-16;-3.745526e-19;0;0;0;0;2.220449e-16;-2.220449e-16;2.220449e-16;45;0;2.960599e-16;2.563954e-16;-2.220446e-16;5.446781e-18;-6.195886e-18;2.220446e-16;-1.164267e-17;-13.708244;0;0;0
-39.246168;0.245845;-12.141454;0;0;0;0;-2.220446e-16;-1.110223e-16;4.321475e-18;0;0;0;0;-1.108543e-16;-2.222126e-16;5.567911e-17;45;0;7.423881e-17;1.282946e-16;-2.220446e-16;5.44508e-18;3.19787e-18;-1.110223e-16;-2.24721e-18;-12.170978;-3.330669e-16;3.330669e-16;0
-37.633182;0.245845;-10.705547;0;0;0;0;0;0;-1.088666e-17;0;0;0;0;1.088666e-17;-1.088666e-17;1.088666e-17;45;0;1.451555e-17;1.257084e-17;0;-2.177333e-17;0;0;2.177333e-17;-10.731438;0;0;0
-36.020196;0.245845;-9.352691;0;0;0;0;-2.220446e-16;-1.110223e-16;-3.751592e-18;0;0;0;0;-1.108957e-16;-2.221712e-16;5.563778e-17;45;0;7.41837e-17;1.282707e-16;-2.220446e-16;-1.088494e-17;3.381749e-18;-1.110223e-16;1.426668e-17;-9.385489;-3.330669e-16;3.330669e-16;0
-34.40721;0.245845;-8.097879;0;0;0;0;2.220446e-16;2.220446e-16;4.68433e-18;0;0;0;0;2.267289e-16;2.173603e-16;4.68433e-18;45;0;6.245773e-18;1.481285e-16;2.220446e-16;1.632667e-17;-6.958011e-18;2.220446e-16;-2.328468e-17;-8.130513;4.440892e-16;-4.440892e-16;0
-32.794224;0.245845;-6.93554;0;0;0;0;0;0;-2.176833e-17;0;0;0;0;2.176833e-17;-2.176833e-17;2.176833e-17;45;0;2.902443e-17;2.51359e-17;0;-4.353665e-17;0;0;4.353665e-17;-6.972466;0;0;0
-31.181238;0.245845;-5.877819;0;0;0;0;0;2.220446e-16;-1.833448e-18;0;0;0;0;2.220597e-16;-1.513796e-20;1.110374e-16;45;0;1.480499e-16;1.480449e-16;0;0;-3.666895e-18;2.220446e-16;-3.666895e-18;-5.899963;2.220446e-16;-2.220446e-16;0
-29.568251;0.245845;-4.882485;0;0;0;0;-1.110223e-16;-1.110223e-16;-6.291924e-18;0;0;0;0;-1.047304e-16;-1.173142e-16;6.291924e-18;45;0;8.389232e-18;7.437059e-17;-1.110223e-16;-1.631604e-17;3.732188e-18;-1.110223e-16;2.004822e-17;-4.904545;-2.220446e-16;2.220446e-16;0
-27.955265;0.245845;-3.952866;0;0;0;0;0;0;0;0;0;0;0;0;0;0;45;0;0;0;0;0;0;0;0;-3.973333;0;0;0
-26.342279;0.245845;-3.088118;0;0;0;0;2.220446e-16;0;-1.359012e-17;0;0;0;0;2.228733e-16;-8.286838e-19;1.11851e-16;45;0;1.491346e-16;1.488592e-16;2.220446e-16;-2.718025e-17;0;0;2.718025e-17;-3.107709;2.220446e-16;-2.220446e-16;0
-24.729293;0.245845;-2.289219;0;0;0;0;0;0;1.087235e-17;0;0;0;0;1.087235e-17;-1.087235e-17;1.087235e-17;45;0;1.449647e-17;1.255431e-17;0;2.174471e-17;0;0;-2.174471e-17;-2.305493;0;0;0
-23.116307;0.245845;-1.549715;0;0;0;0;0;0;0;0;0;0;0;0;0;0;45;0;0;0;0;0;0;0;0;-1.557653;0;0;0
-21.503321;0.245845;-0.84624;0;0;0;0;0;2.220446e-16;-2.37429e-17;0;0;0;0;2.24555e-16;-2.510411e-18;1.135327e-16;45;0;1.51377e-16;1.505471e-16;0;-4.348171e-17;-4.004095e-18;2.220446e-16;3.947761e-17;-0.85573;2.220446e-16;-2.220446e-16;0
-19.890335;0.245845;-0.182225;0;0;0;0;0;0;-1.0867e-17;0;0;0;0;1.0867e-17;-1.0867e-17;1.0867e-17;45;0;1.448934e-17;1.254814e-17;0;-2.173401e-17;0;0;2.173401e-17;-0.203785;0;0;0
-18.277349;0.245845;0.409789;0;0;0;0;0;2.220446e-16;-2.056334e-18;0;0;0;0;2.220636e-16;-1.904188e-20;1.110413e-16;45;0;1.480551e-16;1.480488e-16;0;0;-4.112668e-18;2.220446e-16;-4.112668e-18;0.385982;2.220446e-16;-2.220446e-16;0
-16.664363;0.245845;0.926277;0;0;0;0;-1.110223e-16;0;1.357413e-18;0;0;0;0;1.659392e-20;-1.110389e-16;5.552775e-17;45;0;7.403699e-17;7.403146e-17;-1.110223e-16;2.714827e-18;0;0;-2.714827e-18;0.908567;-1.110223e-16;1.110223e-16;0
-15.051377;0.245845;1.386706;0;0;0;0;0;2.220446e-16;-2.094578e-18;0;0;0;0;2.220644e-16;-1.975669e-20;1.110421e-16;45;0;1.480561e-16;1.480495e-16;0;0;-4.189156e-18;2.220446e-16;-4.189156e-18;1.380417;2.220446e-16;-2.220446e-16;0
-13.438391;0.245845;1.824332;0;0;0;0;0;0;-2.172344e-17;0;0;0;0;2.172344e-17;-2.172344e-17;2.172344e-17;45;0;2.896459e-17;2.508407e-17;0;-4.344688e-17;0;0;4.344688e-17;1.806354;0;0;0
-11.825405;0.245845;2.201833;0;0;0;0;-1.110223e-16;2.220446e-16;2.943825e-19;0;0;0;0;2.220449e-16;-1.110226e-16;1.665337e-16;45;0;2.220449e-16;1.958252e-16;-1.110223e-16;2.714224e-18;-2.125459e-18;2.220446e-16;-4.839683e-18;2.18489;1.110223e-16;-1.110223e-16;0
-10.212419;0.245845;2.521082;0;0;0;0;2.220446e-16;0;-2.306572e-17;0;0;0;0;2.244153e-16;-2.370726e-18;1.13393e-16;45;0;1.511907e-16;1.504067e-16;2.220446e-16;-4.613143e-17;0;0;4.613143e-17;2.528356;2.220446e-16;-2.220446e-16;0
-8.599433;0.245845;2.856503;0;0;0;0;2.220446e-16;2.220446e-16;-2.412975e-17;0;0;0;0;2.461744e-16;1.979149e-16;2.412975e-17;45;0;3.2173e-17;1.506291e-16;2.220446e-16;-4.612944e-17;-2.13006e-18;2.220446e-16;4.399938e-17;2.854929;4.440892e-16;-4.440892e-16;0
-6.986447;0.245845;3.185672;0;0;0;0;-1.110223e-16;0;-1.085503e-17;0;0;0;0;1.051376e-18;-1.120737e-16;5.656252e-17;45;0;7.54167e-17;7.50687e-17;-1.110223e-16;-2.171005e-17;0;0;2.171005e-17;3.162745;-1.110223e-16;1.110223e-16;0
-5.373461;0.245845;3.447818;0;0;0;0;0;-1.110223e-16;1.139298e-17;0;0;0;0;1.157075e-18;-1.121794e-16;5.666822e-17;45;0;7.555764e-17;7.517491e-17;0;2.170903e-17;1.076926e-18;-1.110223e-16;-2.06321e-17;3.421735;-1.110223e-16;1.110223e-16;0
-3.760475;0.245845;3.634093;0;0;0;0;0;-1.110223e-16;5.412365e-19;0;0;0;0;2.638479e-21;-1.110249e-16;5.551379e-17;45;0;7.401838e-17;7.40175e-17;0;0;1.082473e-18;-1.110223e-16;1.082473e-18;3.611082;-1.110223e-16;1.110223e-16;0
-2.147489;0.245845;3.753847;0;0;0;0;0;0;0;0;0;0;0;0;0;0;45;0;0;0;0;0;0;0;0;3.728839;0;0;0
-0.534503;0.245845;3.799196;0;0;0;0;0;-1.110223e-16;3.265188e-17;0;0;0;0;8.890967e-18;-1.199133e-16;6.440212e-17;45;0;8.586949e-17;8.30646e-17;0;6.503201e-17;2.717351e-19;-1.110223e-16;-6.476028e-17;3.798665;-1.110223e-16;1.110223e-16;0
1.078483;0.245845;3.83995;0;0;0;0;-1.110223e-16;-1.110223e-16;-1.03984e-17;0;0;0;0;-1.006239e-16;-1.214207e-16;1.03984e-17;45;0;1.386454e-17;7.498246e-17;-1.110223e-16;-2.134011e-17;5.433064e-19;-1.110223e-16;2.188342e-17;3.854264;-2.220446e-16;2.220446e-16;0
2.691469;0.245845;3.917482;0;0;0;0;-1.110223e-16;0;1.693593e-19;0;0;0;0;2.583491e-22;-1.110226e-16;5.551141e-17;45;0;7.401521e-17;7.401513e-17;-1.110223e-16;3.387186e-19;0;0;-3.387186e-19;3.898063;-1.110223e-16;1.110223e-16;0
4.304455;0.245845;3.932197;0;0;0;0;-1.110223e-16;-1.110223e-16;-1.359025e-19;0;0;0;0;-1.108864e-16;-1.111582e-16;1.359025e-19;45;0;1.812034e-19;7.401504e-17;-1.110223e-16;0;-2.71805e-19;-1.110223e-16;-2.71805e-19;3.905944;-2.220446e-16;2.220446e-16;0
5.917441;0.245845;3.869435;0;0;0;0;0;0;0;0;0;0;0;0;0;0;45;0;0;0;0;0;0;0;0;3.850315;0;0;0
7.530427;0.245845;3.754236;0;0;0;0;-1.110223e-16;0;-1.151586e-17;0;0;0;0;1.181908e-18;-1.122042e-16;5.669306e-17;45;0;7.559074e-17;7.519987e-17;-1.110223e-16;-2.303172e-17;0;0;2.303172e-17;3.74109;-1.110223e-16;1.110223e-16;0
9.143413;0.245845;3.602476;0;0;0;0;0;2.220446e-16;1.080968e-18;0;0;0;0;2.220499e-16;-5.262291e-21;1.110276e-16;45;0;1.480368e-16;1.48035e-16;0;-9.551743e-23;2.162031e-18;2.220446e-16;2.162126e-18;3.587108;2.220446e-16;-2.220446e-16;0
10.756399;0.245845;3.402648;0;0;0;0;-1.110223e-16;0;-6.778328e-19;0;0;0;0;4.138269e-21;-1.110264e-16;5.551529e-17;45;0;7.402038e-17;7.401901e-17;-1.110223e-16;-1.355666e-18;0;0;1.355666e-18;3.393543;-1.110223e-16;1.110223e-16;0
12.369385;0.245845;3.171553;0;0;0;0;0;0;0;0;0;0;0;0;0;0;45;0;0;0;0;0;0;0;0;3.155565;0;0;0
13.982371;0.245845;2.89082;0;0;0;0;0;2.220446e-16;2.27495e-17;0;0;0;0;2.243514e-16;-2.306826e-18;1.133291e-16;45;0;1.511055e-16;1.503425e-16;0;4.33625e-17;2.136501e-18;2.220446e-16;-4.122599e-17;2.874085;2.220446e-16;-2.220446e-16;0
15.595357;0.245845;2.561637;0;0;0;0;-1.110223e-16;2.220446e-16;7.694395e-19;0;0;0;0;2.220464e-16;-1.110241e-16;1.665352e-16;45;0;2.22047e-16;1.958269e-16;-1.110223e-16;-2.710357e-18;4.249236e-18;2.220446e-16;6.959593e-18;2.546037;1.110223e-16;-1.110223e-16;0
17.208343;0.245845;2.187469;0;0;0;0;0;0;-1.084824e-17;0;0;0;0;1.084824e-17;-1.084824e-17;1.084824e-17;45;0;1.446432e-17;1.252646e-17;0;-2.169647e-17;0;0;2.169647e-17;2.170461;0;0;0
18.821329;0.245845;1.761506;0;0;0;0;2.220446e-16;-1.110223e-16;3.092483e-19;0;0;0;0;2.220449e-16;-1.110226e-16;1.665337e-16;45;0;2.22045e-16;1.958253e-16;2.220446e-16;2.712897e-18;-2.0944e-18;-1.110223e-16;-4.807297e-18;1.74659;1.110223e-16;-1.110223e-16;0
20.434315;0.245845;1.286647;0;0;0;0;0;2.220446e-16;-8.774892e-18;0;0;0;0;2.223908e-16;-3.462316e-19;1.113685e-16;45;0;1.484914e-16;1.483761e-16;0;-2.170461e-17;4.154824e-18;2.220446e-16;2.585943e-17;1.272959;2.220446e-16;-2.220446e-16;0
22.047301;0.245845;0.765605;0;0;0;0;2.220446e-16;-1.110223e-16;6.521901e-19;0;0;0;0;2.220459e-16;-1.110236e-16;1.665347e-16;45;0;2.220463e-16;1.958264e-16;2.220446e-16;5.425179e-18;-4.120799e-18;-1.110223e-16;-9.545979e-18;0.752513;1.110223e-16;-1.110223e-16;0
23.660287;0.245845;0.202213;0;0;0;0;0;0;2.170498e-17;0;0;0;0;2.170498e-17;-2.170498e-17;2.170498e-17;45;0;2.893998e-17;2.506276e-17;0;4.340997e-17;0;0;-4.340997e-17;0.183195;0;0;0
25.273273;0.245845;-0.416889;0;0;0;0;2.220446e-16;2.220446e-16;2.64456e-17;0;0;0;0;2.484902e-16;1.95599e-16;2.64456e-17;45;0;3.526081e-17;1.511466e-16;2.220446e-16;4.885649e-17;4.034717e-18;2.220446e-16;-4.482178e-17;-0.437231;4.440892e-16;-4.440892e-16;0
26.886259;0.245845;-1.091177;0;0;0;0;2.220446e-16;0;1.357435e-17;0;0;0;0;2.228714e-16;-8.267685e-19;1.118491e-16;45;0;1.491321e-16;1.488573e-16;2.220446e-16;2.71487e-17;0;0;-2.71487e-17;-1.112387;2.220446e-16;-2.220446e-16;0
28.499246;0.245845;-1.819487;0;0;0;0;-1.110223e-16;0;2.98609e-17;0;0;0;0;7.521866e-18;-1.185442e-16;6.303302e-17;45;0;8.404403e-17;8.16523e-17;-1.110223e-16;5.97218e-17;0;0;-5.97218e-17;-1.843376;-1.110223e-16;1.110223e-16;0
30.112232;0.245845;-2.607531;0;0;0;0;0;-1.110223e-16;-2.365257e-17;0;0;0;0;4.828984e-18;-1.158513e-16;6.034013e-17;45;0;8.045351e-17;7.889313e-17;0;-4.342661e-17;-3.878522e-18;-1.110223e-16;3.954809e-17;-2.630606;-1.110223e-16;1.110223e-16;0
31.725218;0.245845;-3.451907;0;0;0;0;0;0;-2.171499e-17;0;0;0;0;2.171499e-17;-2.171499e-17;2.171499e-17;45;0;2.895332e-17;2.507431e-17;0;-4.342999e-17;0;0;4.342999e-17;-3.481721;0;0;0
33.338204;0.245845;-4.374258;0;0;0;0;-2.220446e-16;-1.110223e-16;-1.041311e-17;0;0;0;0;-1.100541e-16;-2.230128e-16;5.647938e-17;45;0;7.530585e-17;1.287602e-16;-2.220446e-16;-1.015005e-17;-1.067617e-17;-1.110223e-16;-5.261202e-19;-4.377061;-3.330669e-16;3.330669e-16;0
-44.085126;-1.367141;-17.184271;0;0;0;0;0;2.220446e-16;-4.142956e-18;0;0;0;0;2.221219e-16;-7.727328e-20;1.110996e-16;45;0;1.481328e-16;1.48107e-16;0;0;-8.285913e-18;2.220446e-16;-8.285913e-18;-17.184215;2.220446e-16;-2.220446e-16;0
-42.47214;-1.367141;-15.417626;0;0;0;0;2.220446e-16;0;-2.723195e-18;0;0;0;0;2.22078e-16;-3.339274e-20;1.110557e-16;45;0;1.480743e-16;1.480631e-16;2.220446e-16;-5.446391e-18;0;0;5.446391e-18;-15.455602;2.220446e-16;-2.220446e-16;0
-40.859154;-1.367141;-13.762943;0;0;0;0;-2.220446e-16;0;-8.172653e-18;0;0;0;0;3.003992e-19;-2.22345e-16;1.113227e-16;45;0;1.484303e-16;1.483302e-16;-2.220446e-16;-1.634531e-17;0;0;1.634531e-17;-13.80702;-2.220446e-16;2.220446e-16;0
-39.246168;-1.367141;-12.240076;0;0;0;0;0;0;0;0;0;0;0;0;0;0;45;0;0;0;0;0;0;0;0;-12.273278;0;0;0
-37.633182;-1.367141;-10.82149;0;0;0;0;-2.220446e-16;0;5.444466e-18;0;0;0;0;1.334165e-19;-2.22178e-16;1.111557e-16;45;0;1.482076e-16;1.481632e-16;-2.220446e-16;1.088893e-17;0;0;-1.088893e-17;-10.841352;-2.220446e-16;2.220446e-16;0
-36.020196;-1.367141;-9.473679;0;0;0;0;-2.220446e-16;0;2.721288e-17;0;0;0;0;3.286457e-18;-2.253311e-16;1.143088e-16;45;0;1.524117e-16;1.513281e-16;-2.220446e-16;5.442576e-17;0;0;-5.442576e-17;-9.500007;-2.220446e-16;2.220446e-16;0
-34.40721;-1.367141;-8.214554;0;0;0;0;2.220446e-16;-1.110223e-16;-9.841527e-19;0;0;0;0;2.220475e-16;-1.110252e-16;1.665364e-16;45;0;2.220485e-16;1.958282e-16;2.220446e-16;-5.441332e-18;3.473027e-18;-1.110223e-16;8.914358e-18;-8.243102;1.110223e-16;-1.110223e-16;0
-32.794224;-1.367141;-7.041381;0;0;0;0;-1.110223e-16;0;2.719532e-18;0;0;0;0;6.657603e-20;-1.110889e-16;5.557773e-17;45;0;7.410364e-17;7.408146e-17;-1.110223e-16;5.439064e-18;0;0;-5.439064e-18;-7.080926;-1.110223e-16;1.110223e-16;0
-31.181238;-1.367141;-5.981596;0;0;0;0;0;0;1.088034e-17;0;0;0;0;1.088034e-17;-1.088034e-17;1.088034e-17;45;0;1.450712e-17;1.256353e-17;0;2.176067e-17;0;0;-2.176067e-17;-6.007229;0;0;0
-29.568251;-1.367141;-4.995761;0;0;0;0;0;0;0;0;0;0;0;0;0;0;45;0;0;0;0;0;0;0;0;-5.014157;0;0;0
-27.955265;-1.367141;-4.06916;0;0;0;0;0;-1.110223e-16;-8.976955e-18;0;0;0;0;7.211672e-19;-1.117435e-16;5.623232e-17;45;0;7.497642e-17;7.47372e-17;0;-2.175162e-17;3.797708e-18;-1.110223e-16;2.554933e-17;-4.085091;-1.110223e-16;1.110223e-16;0
-26.342279;-1.367141;-3.196874;0;0;0;0;0;0;1.087519e-17;0;0;0;0;1.087519e-17;-1.087519e-17;1.087519e-17;45;0;1.450025e-17;1.255759e-17;0;2.175038e-17;0;0;-2.175038e-17;-3.218153;0;0;0
-24.729293;-1.367141;-2.39249;0;0;0;0;0;0;1.08758e-17;0;0;0;0;1.08758e-17;-1.08758e-17;1.08758e-17;45;0;1.450106e-17;1.255829e-17;0;2.175159e-17;0;0;-2.175159e-17;-2.412454;0;0;0
-23.116307;-1.367141;-1.649445;0;0;0;0;2.220446e-16;-1.110223e-16;-7.353112e-19;0;0;0;0;2.220462e-16;-1.110239e-16;1.665351e-16;45;0;2.220468e-16;1.958268e-16;2.220446e-16;-5.438123e-18;3.967501e-18;-1.110223e-16;9.405623e-18;-1.662075;1.110223e-16;-1.110223e-16;0
-21.503321;-1.367141;-0.946748;0;0;0;0;-1.110223e-16;0;1.359323e-18;0;0;0;0;1.664064e-20;-1.110389e-16;5.552779e-17;45;0;7.403706e-17;7.403151e-17;-1.110223e-16;2.718646e-18;0;0;-2.718646e-18;-0.960329;-1.110223e-16;1.110223e-16;0
-19.890335;-1.367141;-0.28984;0;0;0;0;-1.110223e-16;0;1.358754e-18;0;0;0;0;1.662672e-20;-1.110389e-16;5.552778e-17;45;0;7.403704e-17;7.403149e-17;-1.110223e-16;2.717509e-18;0;0;-2.717509e-18;-0.310553;-1.110223e-16;1.110223e-16;0
-18.277349;-1.367141;0.298456;0;0;0;0;2.220446e-16;0;-1.222524e-17;0;0;0;0;2.227157e-16;-6.710645e-19;1.116934e-16;45;0;1.489245e-16;1.487013e-16;2.220446e-16;-2.445049e-17;0;0;2.445049e-17;0.276919;2.220446e-16;-2.220446e-16;0
-16.664363;-1.367141;0.814148;0;0;0;0;-1.110223e-16;2.220446e-16;1.014298e-17;0;0;0;0;2.223532e-16;-1.113309e-16;1.668421e-16;45;0;2.224561e-16;1.961749e-16;-1.110223e-16;2.444695e-17;-4.161003e-18;2.220446e-16;-2.860796e-17;0.799675;1.110223e-16;-1.110223e-16;0
-15.051377;-1.367141;1.277304;0;0;0;0;0;0;1.08664e-17;0;0;0;0;1.08664e-17;-1.08664e-17;1.08664e-17;45;0;1.448853e-17;1.254744e-17;0;2.17328e-17;0;0;-2.17328e-17;1.273567;0;0;0
-13.438391;-1.367141;1.720532;0;0;0;0;2.220446e-16;2.220446e-16;-3.466038e-18;0;0;0;0;2.255106e-16;2.185786e-16;3.466038e-18;45;0;4.621384e-18;1.480838e-16;2.220446e-16;-2.716276e-18;-4.2158e-18;2.220446e-16;-1.499524e-18;1.700215;4.440892e-16;-4.440892e-16;0
-11.825405;-1.367141;2.096017;0;0;0;0;-1.110223e-16;2.220446e-16;-1.056905e-17;0;0;0;0;2.223797e-16;-1.113573e-16;1.668685e-16;45;0;2.224913e-16;1.962049e-16;-1.110223e-16;-1.901141e-17;-2.12669e-18;2.220446e-16;1.688472e-17;2.076747;1.110223e-16;-1.110223e-16;0
-10.212419;-1.367141;2.40829;0;0;0;0;0;0;-1.085971e-17;0;0;0;0;1.085971e-17;-1.085971e-17;1.085971e-17;45;0;1.447962e-17;1.253972e-17;0;-2.171943e-17;0;0;2.171943e-17;2.417178;0;0;0
-8.599433;-1.367141;2.741015;0;0;0;0;0;-1.110223e-16;2.278089e-17;0;0;0;0;4.492657e-18;-1.15515e-16;6.000381e-17;45;0;8.000507e-17;7.855036e-17;0;4.343167e-17;2.130112e-18;-1.110223e-16;-4.130156e-17;2.74237;-1.110223e-16;1.110223e-16;0
-6.986447;-1.367141;3.070421;0;0;0;0;0;0;-1.038061e-22;0;0;0;0;1.038061e-22;-1.038061e-22;1.038061e-22;45;0;1.384081e-22;1.19865e-22;0;-2.076122e-22;0;0;2.076122e-22;3.051322;0;0;0
-5.373461;-1.367141;3.335173;0;0;0;0;0;-1.110223e-16;5.38423e-19;0;0;0;0;2.61112e-21;-1.110249e-16;5.551377e-17;45;0;7.401835e-17;7.401748e-17;0;0;1.076846e-18;-1.110223e-16;1.076846e-18;3.311313;-1.110223e-16;1.110223e-16;0
-3.760475;-1.367141;3.52023;0;0;0;0;2.220446e-16;0;-1.15337e-17;0;0;0;0;2.226421e-16;-5.974887e-19;1.116198e-16;45;0;1.488264e-16;1.486276e-16;2.220446e-16;-2.306739e-17;0;0;2.306739e-17;3.49893;2.220446e-16;-2.220446e-16;0
-2.147489;-1.367141;3.629811;0;0;0;0;0;2.220446e-16;-1.112343e-17;0;0;0;0;2.226004e-16;-5.558424e-19;1.115781e-16;45;0;1.487709e-16;1.485859e-16;0;-2.170382e-17;-5.430456e-19;2.220446e-16;2.116078e-17;3.613535;2.220446e-16;-2.220446e-16;0
-0.534503;-1.367141;3.671434;0;0;0;0;0;0;0;0;0;0;0;0;0;0;45;0;0;0;0;0;0;0;0;3.682793;0;0;0
1.078483;-1.367141;3.720374;0;0;0;0;0;2.220446e-16;-2.716385e-19;0;0;0;0;2.220449e-16;-3.323089e-22;1.110226e-16;45;0;1.480302e-16;1.480301e-16;0;0;-5.432771e-19;2.220446e-16;-5.432771e-19;3.73939;2.220446e-16;-2.220446e-16;0
2.691469;-1.367141;3.794611;0;0;0;0;2.220446e-16;0;2.17138e-17;0;0;0;0;2.241481e-16;-2.103471e-18;1.131258e-16;45;0;1.508344e-16;1.501381e-16;2.220446e-16;4.342759e-17;0;0;-4.342759e-17;3.78315;2.220446e-16;-2.220446e-16;0
4.304455;-1.367141;3.802653;0;0;0;0;0;2.220446e-16;1.358957e-19;0;0;0;0;2.220447e-16;-8.317087e-23;1.110224e-16;45;0;1.480298e-16;1.480298e-16;0;0;2.717915e-19;2.220446e-16;2.717915e-19;3.787392;2.220446e-16;-2.220446e-16;0
5.917441;-1.367141;3.73547;0;0;0;0;2.220446e-16;0;3.389442e-19;0;0;0;0;2.220451e-16;-5.173866e-22;1.110228e-16;45;0;1.480304e-16;1.480303e-16;2.220446e-16;6.778884e-19;0;0;-6.778884e-19;3.729164;2.220446e-16;-2.220446e-16;0
7.530427;-1.367141;3.623395;0;0;0;0;0;0;-1.084763e-17;0;0;0;0;1.084763e-17;-1.084763e-17;1.084763e-17;45;0;1.446351e-17;1.252577e-17;0;-2.169527e-17;0;0;2.169527e-17;3.620962;0;0;0
9.143413;-1.367141;3.482219;0;0;0;0;2.220446e-16;0;6.78299e-19;0;0;0;0;2.220467e-16;-2.072039e-21;1.110244e-16;45;0;1.480325e-16;1.480318e-16;2.220446e-16;1.356598e-18;0;0;-1.356598e-18;3.470138;2.220446e-16;-2.220446e-16;0
10.756399;-1.367141;3.286222;0;0;0;0;0;2.220446e-16;1.077594e-18;0;0;0;0;2.220498e-16;-5.229496e-21;1.110275e-16;45;0;1.480367e-16;1.48035e-16;0;0;2.155188e-18;2.220446e-16;2.155188e-18;3.277975;2.220446e-16;-2.220446e-16;0
12.369385;-1.367141;3.047031;0;0;0;0;0;-1.110223e-16;-3.947992e-19;0;0;0;0;1.403902e-21;-1.110237e-16;5.551255e-17;45;0;7.401674e-17;7.401627e-17;0;1.356779e-18;-2.146377e-18;-1.110223e-16;-3.503156e-18;3.038096;-1.110223e-16;1.110223e-16;0
13.982371;-1.367141;2.759338;0;0;0;0;0;0;0;0;0;0;0;0;0;0;45;0;0;0;0;0;0;0;0;2.753822;0;0;0
15.595357;-1.367141;2.429502;0;0;0;0;0;2.220446e-16;1.297902e-17;0;0;0;0;2.228007e-16;-7.560787e-19;1.117784e-16;45;0;1.490378e-16;1.487865e-16;0;2.170693e-17;4.251102e-18;2.220446e-16;-1.745583e-17;2.426346;2.220446e-16;-2.220446e-16;0
17.208343;-1.367141;2.064273;0;0;0;0;2.220446e-16;-1.110223e-16;1.115908e-17;0;0;0;0;2.224181e-16;-1.113958e-16;1.669069e-16;45;0;2.225426e-16;1.962484e-16;2.220446e-16;2.443053e-17;-2.112381e-18;-1.110223e-16;-2.654292e-17;2.05355;1.110223e-16;-1.110223e-16;0
18.821329;-1.367141;1.64522;0;0;0;0;2.220446e-16;2.220446e-16;-7.409104e-18;0;0;0;0;2.294537e-16;2.146355e-16;7.409104e-18;45;0;9.878805e-18;1.482768e-16;2.220446e-16;-1.900711e-17;4.188904e-18;2.220446e-16;2.319602e-17;1.630884;4.440892e-16;-4.440892e-16;0
20.434315;-1.367141;1.167234;0;0;0;0;0;2.220446e-16;1.429231e-17;0;0;0;0;2.229608e-16;-9.161711e-19;1.119385e-16;45;0;1.492513e-16;1.489469e-16;0;2.443412e-17;4.150511e-18;2.220446e-16;-2.028361e-17;1.154039;2.220446e-16;-2.220446e-16;0
22.047301;-1.367141;0.637964;0;0;0;0;0;2.220446e-16;1.155697e-17;0;0;0;0;2.226445e-16;-5.998965e-19;1.116222e-16;45;0;1.488296e-16;1.4863e-16;0;1.89969e-17;4.117049e-18;2.220446e-16;-1.487985e-17;0.628661;2.220446e-16;-2.220446e-16;0
23.660287;-1.367141;0.073239;0;0;0;0;-1.110223e-16;-1.110223e-16;-2.040554e-18;0;0;0;0;-1.089817e-16;-1.130629e-16;2.040554e-18;45;0;2.720739e-18;7.405236e-17;-1.110223e-16;3.410141e-22;-4.08145e-18;-1.110223e-16;-4.081791e-18;0.05677;-2.220446e-16;2.220446e-16;0
25.273273;-1.367141;-0.544291;0;0;0;0;0;0;1.08549e-17;0;0;0;0;1.08549e-17;-1.08549e-17;1.08549e-17;45;0;1.447321e-17;1.253416e-17;0;2.170981e-17;0;0;-2.170981e-17;-0.562745;0;0;0
26.886259;-1.367141;-1.218677;0;0;0;0;-1.110223e-16;0;-2.443043e-17;0;0;0;0;5.138117e-18;-1.161604e-16;6.064927e-17;45;0;8.086569e-17;7.920855e-17;-1.110223e-16;-4.886085e-17;0;0;4.886085e-17;-1.237316;-1.110223e-16;1.110223e-16;0
28.499246;-1.367141;-1.955388;0;0;0;0;0;0;0;0;0;0;0;0;0;0;45;0;0;0;0;0;0;0;0;-1.969497;0;0;0
30.112232;-1.367141;-2.750288;0;0;0;0;0;0;1.086149e-17;0;0;0;0;1.086149e-17;-1.086149e-17;1.086149e-17;45;0;1.448198e-17;1.254176e-17;0;2.172297e-17;0;0;-2.172297e-17;-2.75934;0;0;0
31.725218;-1.367141;-3.598632;0;0;0;0;-1.110223e-16;0;-1.358087e-17;0;0;0;0;1.637146e-18;-1.126594e-16;5.71483e-17;45;0;7.619773e-17;7.565792e-17;-1.110223e-16;-2.716174e-17;0;0;2.716174e-17;-3.610611;-1.110223e-16;1.110223e-16;0
33.338204;-1.367141;-4.51539;0;0;0;0;0;0;1.270176e-17;0;0;0;0;1.270176e-17;-1.270176e-17;1.270176e-17;45;0;1.693568e-17;1.466673e-17;0;2.540352e-17;0;0;-2.540352e-17;-4.50315;0;0;0
-44.085126;-2.980127;-17.296183;0;0;0;0;2.220446e-16;2.220446e-16;3.325755e-17;0;0;0;0;2.553022e-16;1.88787e-16;3.325755e-17;45;0;4.434341e-17;1.529299e-16;2.220446e-16;7.476931e-17;-8.254202e-18;2.220446e-16;-8.302351e-17;-17.290656;4.440892e-16;-4.440892e-16;0
-42.47214;-2.980127;-15.518288;0;0;0;0;2.220446e-16;0;-2.451639e-17;0;0;0;0;2.247193e-16;-2.674686e-18;1.13697e-16;45;0;1.51596e-16;1.507123e-16;2.220446e-16;-4.903279e-17;0;0;4.903279e-17;-15.555437;2.220446e-16;-2.220446e-16;0
-40.859154;-2.980127;-13.858092;0;0;0;0;0;0;1.361878e-17;0;0;0;0;1.361878e-17;-1.361878e-17;1.361878e-17;45;0;1.815837e-17;1.572561e-17;0;2.723756e-17;0;0;-2.723756e-17;-13.903482;0;0;0
-39.246168;-2.980127;-12.333875;0;0;0;0;2.220446e-16;-1.110223e-16;-1.117147e-18;0;0;0;0;2.220484e-16;-1.11026e-16;1.665372e-16;45;0;2.220496e-16;1.958292e-16;2.220446e-16;-5.446013e-18;3.211719e-18;-1.110223e-16;8.657732e-18;-12.37068;1.110223e-16;-1.110223e-16;0
-37.633182;-2.980127;-10.919412;0;0;0;0;0;2.220446e-16;1.847813e-17;0;0;0;0;2.235718e-16;-1.527211e-18;1.125495e-16;45;0;1.50066e-16;1.495595e-16;0;4.35691e-17;-6.612828e-18;2.220446e-16;-5.018192e-17;-10.943547;2.220446e-16;-2.220446e-16;0
-36.020196;-2.980127;-9.583941;0;0;0;0;0;2.220446e-16;1.838842e-17;0;0;0;0;2.235571e-16;-1.512517e-18;1.125348e-16;45;0;1.500464e-16;1.495448e-16;0;4.355619e-17;-6.779356e-18;2.220446e-16;-5.033555e-17;-9.607215;2.220446e-16;-2.220446e-16;0
-34.40721;-2.980127;-8.330866;0;0;0;0;-1.110223e-16;2.220446e-16;-1.163851e-17;0;0;0;0;2.224508e-16;-1.114285e-16;1.669396e-16;45;0;2.225862e-16;1.962855e-16;-1.110223e-16;-1.632844e-17;-6.948569e-18;2.220446e-16;9.379876e-18;-8.35294;1.110223e-16;-1.110223e-16;0
-32.794224;-2.980127;-7.157386;0;0;0;0;2.220446e-16;-1.110223e-16;9.948306e-18;0;0;0;0;2.223415e-16;-1.113192e-16;1.668303e-16;45;0;2.224404e-16;1.961616e-16;2.220446e-16;1.632519e-17;3.571418e-18;-1.110223e-16;-1.275378e-17;-7.189327;1.110223e-16;-1.110223e-16;0
-31.181238;-2.980127;-6.091318;0;0;0;0;2.220446e-16;0;8.161309e-18;0;0;0;0;2.223442e-16;-2.995669e-19;1.113219e-16;45;0;1.484292e-16;1.483294e-16;2.220446e-16;1.632262e-17;0;0;-1.632262e-17;-6.11339;2.220446e-16;-2.220446e-16;0
-29.568251;-2.980127;-5.101774;0;0;0;0;2.220446e-16;-1.110223e-16;-8.518431e-19;0;0;0;0;2.220468e-16;-1.110245e-16;1.665356e-16;45;0;2.220475e-16;1.958274e-16;2.220446e-16;-5.440934e-18;3.737247e-18;-1.110223e-16;9.178181e-18;-5.118904;1.110223e-16;-1.110223e-16;0
-27.955265;-2.980127;-4.174631;0;0;0;0;2.220446e-16;-1.110223e-16;1.899338e-18;0;0;0;0;2.220554e-16;-1.110331e-16;1.665443e-16;45;0;2.220591e-16;1.958372e-16;2.220446e-16;1.881051e-22;3.798488e-18;-1.110223e-16;3.7983e-18;-4.190101;1.110223e-16;-1.110223e-16;0
-26.342279;-2.980127;-3.30415;0;0;0;0;2.220446e-16;-1.110223e-16;1.008778e-17;0;0;0;0;2.223499e-16;-1.113276e-16;1.668387e-16;45;0;2.224516e-16;1.961711e-16;2.220446e-16;1.631723e-17;3.858321e-18;-1.110223e-16;-1.245891e-17;-3.322787;1.110223e-16;-1.110223e-16;0
-24.729293;-2.980127;-2.495867;0;0;0;0;2.220446e-16;2.220446e-16;-4.67731e-18;0;0;0;0;2.267219e-16;2.173673e-16;4.67731e-18;45;0;6.236414e-18;1.481282e-16;2.220446e-16;-5.438097e-18;-3.916523e-18;2.220446e-16;1.521574e-18;-2.515267;4.440892e-16;-4.440892e-16;0
-23.116307;-2.980127;-1.746207;0;0;0;0;2.220446e-16;-1.110223e-16;-1.976925e-17;0;0;0;0;2.232139e-16;-1.121916e-16;1.677028e-16;45;0;2.236037e-16;1.97151e-16;2.220446e-16;-4.350391e-17;3.965415e-18;-1.110223e-16;4.746932e-17;-1.763194;1.110223e-16;-1.110223e-16;0
-21.503321;-2.980127;-1.042744;0;0;0;0;0;0;-2.038974e-17;0;0;0;0;2.038974e-17;-2.038974e-17;2.038974e-17;45;0;2.718631e-17;2.354404e-17;0;-4.077947e-17;0;0;4.077947e-17;-1.061886;0;0;0
-19.890335;-2.980127;-0.389796;0;0;0;0;0;0;-9.512623e-18;0;0;0;0;9.512623e-18;-9.512623e-18;9.512623e-18;45;0;1.26835e-17;1.098423e-17;0;-1.902525e-17;0;0;1.902525e-17;-0.414567;0;0;0
-18.277349;-2.980127;0.194374;0;0;0;0;0;-1.110223e-16;2.379547e-17;0;0;0;0;4.885143e-18;-1.159074e-16;6.039629e-17;45;0;8.05284e-17;7.895041e-17;0;4.347618e-17;4.114767e-18;-1.110223e-16;-3.936141e-17;0.171135;-1.110223e-16;1.110223e-16;0
-16.664363;-2.980127;0.711084;0;0;0;0;0;0;0;0;0;0;0;0;0;0;45;0;0;0;0;0;0;0;0;0.694401;0;0;0
-15.051377;-2.980127;1.178941;0;0;0;0;0;0;-1.086882e-17;0;0;0;0;1.086882e-17;-1.086882e-17;1.086882e-17;45;0;1.449175e-17;1.255023e-17;0;-2.173763e-17;0;0;2.173763e-17;1.170054;0;0;0
-13.438391;-2.980127;1.622781;0;0;0;0;0;-1.110223e-16;1.054073e-18;0;0;0;0;1.000673e-20;-1.110323e-16;5.552116e-17;45;0;7.402821e-17;7.402488e-17;0;0;2.108147e-18;-1.110223e-16;2.108147e-18;1.59741;-1.110223e-16;1.110223e-16;0
-11.825405;-2.980127;1.993491;0;0;0;0;-1.110223e-16;0;1.357984e-18;0;0;0;0;1.660787e-20;-1.110389e-16;5.552776e-17;45;0;7.403701e-17;7.403147e-17;-1.110223e-16;2.715967e-18;0;0;-2.715967e-18;1.973171;-1.110223e-16;1.110223e-16;0
-10.212419;-2.980127;2.302367;0;0;0;0;2.220446e-16;0;-1.358152e-18;0;0;0;0;2.220529e-16;-8.30692e-21;1.110306e-16;45;0;1.480408e-16;1.48038e-16;2.220446e-16;-2.716303e-18;0;0;2.716303e-18;2.312276;2.220446e-16;-2.220446e-16;0
-8.599433;-2.980127;2.634001;0;0;0;0;-1.110223e-16;0;-3.599036e-24;0;0;0;0;1.109336e-31;-1.110223e-16;5.551115e-17;45;0;7.401487e-17;7.401487e-17;-1.110223e-16;-7.198072e-24;0;0;7.198072e-24;2.636841;-1.110223e-16;1.110223e-16;0
-6.986447;-2.980127;2.96198;0;0;0;0;2.220446e-16;0;1.018713e-17;0;0;0;0;2.22511e-16;-4.663929e-19;1.114887e-16;45;0;1.486516e-16;1.484964e-16;2.220446e-16;2.037425e-17;0;0;-2.037425e-17;2.946758;2.220446e-16;-2.220446e-16;0
-5.373461;-2.980127;3.22931;0;0;0;0;0;-1.110223e-16;5.383348e-19;0;0;0;0;2.610265e-21;-1.110249e-16;5.551376e-17;45;0;7.401835e-17;7.401748e-17;0;0;1.07667e-18;-1.110223e-16;1.07667e-18;3.207844;-1.110223e-16;1.110223e-16;0
-3.760475;-2.980127;3.417122;0;0;0;0;0;-1.110223e-16;5.414399e-19;0;0;0;0;2.640462e-21;-1.110249e-16;5.551379e-17;45;0;7.401839e-17;7.401751e-17;0;0;1.08288e-18;-1.110223e-16;1.08288e-18;3.394629;-1.110223e-16;1.110223e-16;0
-2.147489;-2.980127;3.522968;0;0;0;0;0;0;1.069596e-17;0;0;0;0;1.069596e-17;-1.069596e-17;1.069596e-17;45;0;1.426128e-17;1.235063e-17;0;2.139191e-17;0;0;-2.139191e-17;3.508759;0;0;0
-0.534503;-2.980127;3.573113;0;0;0;0;-1.110223e-16;0;-1.070029e-17;0;0;0;0;1.021885e-18;-1.120442e-16;5.653304e-17;45;0;7.537738e-17;7.503907e-17;-1.110223e-16;-2.140059e-17;0;0;2.140059e-17;3.580557;-1.110223e-16;1.110223e-16;0
1.078483;-2.980127;3.634445;0;0;0;0;-1.110223e-16;2.220446e-16;1.077361e-17;0;0;0;0;2.223927e-16;-1.113704e-16;1.668816e-16;45;0;2.225088e-16;1.962197e-16;-1.110223e-16;2.209045e-17;-5.432287e-19;2.220446e-16;-2.263368e-17;3.640871;1.110223e-16;-1.110223e-16;0
2.691469;-2.980127;3.703907;0;0;0;0;-1.110223e-16;0;1.096035e-17;0;0;0;0;1.071684e-18;-1.12094e-16;5.658283e-17;45;0;7.544378e-17;7.50891e-17;-1.110223e-16;2.192071e-17;0;0;-2.192071e-17;3.685309;-1.110223e-16;1.110223e-16;0
4.304455;-2.980127;3.702735;0;0;0;0;-1.110223e-16;0;1.078738e-17;0;0;0;0;1.038432e-18;-1.120607e-16;5.654958e-17;45;0;7.539945e-17;7.50557e-17;-1.110223e-16;2.157475e-17;0;0;-2.157475e-17;3.685157;-1.110223e-16;1.110223e-16;0
5.917441;-2.980127;3.62804;0;0;0;0;-1.110223e-16;0;1.05286e-17;0;0;0;0;9.896399e-19;-1.120119e-16;5.650079e-17;45;0;7.533439e-17;7.500669e-17;-1.110223e-16;2.105721e-17;0;0;-2.105721e-17;3.622448;-1.110223e-16;1.110223e-16;0
7.530427;-2.980127;3.514316;0;0;0;0;0;2.220446e-16;-1.032296e-17;0;0;0;0;2.225235e-16;-4.788862e-19;1.115012e-16;45;0;1.486682e-16;1.485089e-16;0;-2.172992e-17;1.084008e-18;2.220446e-16;2.281393e-17;3.512723;2.220446e-16;-2.220446e-16;0
9.143413;-2.980127;3.379074;0;0;0;0;-1.110223e-16;2.220446e-16;-1.381327e-19;0;0;0;0;2.220447e-16;-1.110224e-16;1.665335e-16;45;0;2.220447e-16;1.95825e-16;-1.110223e-16;-1.357915e-18;1.08165e-18;2.220446e-16;2.439565e-18;3.363001;1.110223e-16;-1.110223e-16;0
10.756399;-2.980127;3.186659;0;0;0;0;0;0;-2.173116e-17;0;0;0;0;2.173116e-17;-2.173116e-17;2.173116e-17;45;0;2.897488e-17;2.509299e-17;0;-4.346233e-17;0;0;4.346233e-17;3.171451;0;0;0
12.369385;-2.980127;2.943894;0;0;0;0;0;0;0;0;0;0;0;0;0;0;45;0;0;0;0;0;0;0;0;2.92989;0;0;0
13.982371;-2.980127;2.654697;0;0;0;0;2.220446e-16;-1.110223e-16;2.134107e-17;0;0;0;0;2.234064e-16;-1.123841e-16;1.678953e-16;45;0;2.238604e-16;1.973693e-16;2.220446e-16;4.481774e-17;-2.135605e-18;-1.110223e-16;-4.695334e-17;2.642808;1.110223e-16;-1.110223e-16;0
15.595357;-2.980127;2.325924;0;0;0;0;2.220446e-16;2.220446e-16;2.415001e-17;0;0;0;0;2.461946e-16;1.978946e-16;2.415001e-17;45;0;3.220001e-17;1.506334e-16;2.220446e-16;4.617419e-17;2.125829e-18;2.220446e-16;-4.404836e-17;2.314469;4.440892e-16;-4.440892e-16;0
17.208343;-2.980127;1.963455;0;0;0;0;0;2.220446e-16;-8.751411e-18;0;0;0;0;2.22389e-16;-3.44384e-19;1.113667e-16;45;0;1.484889e-16;1.483743e-16;0;-2.172835e-17;4.225526e-18;2.220446e-16;2.595388e-17;1.942248;2.220446e-16;-2.220446e-16;0
18.821329;-2.980127;1.542968;0;0;0;0;0;0;0;0;0;0;0;0;0;0;45;0;0;0;0;0;0;0;0;1.51988;0;0;0
20.434315;-2.980127;1.059189;0;0;0;0;0;0;0;0;0;0;0;0;0;0;45;0;0;0;0;0;0;0;0;1.041244;0;0;0
22.047301;-2.980127;0.520015;0;0;0;0;0;-1.110223e-16;-6.983188e-19;0;0;0;0;4.392179e-21;-1.110267e-16;5.551555e-17;45;0;7.402073e-17;7.401926e-17;0;2.71594e-18;-4.112578e-18;-1.110223e-16;-6.828518e-18;0.512446;-1.110223e-16;1.110223e-16;0
23.660287;-2.980127;-0.054161;0;0;0;0;0;-1.110223e-16;-2.039761e-18;0;0;0;0;3.746293e-20;-1.110598e-16;5.554861e-17;45;0;7.406482e-17;7.405233e-17;0;0;-4.079522e-18;-1.110223e-16;-4.079522e-18;-0.061909;-1.110223e-16;1.110223e-16;0
25.273273;-2.980127;-0.672768;0;0;0;0;2.220446e-16;0;-2.172964e-17;0;0;0;0;2.241511e-16;-2.106513e-18;1.131288e-16;45;0;1.508384e-16;1.501412e-16;2.220446e-16;-4.345928e-17;0;0;4.345928e-17;-0.681048;2.220446e-16;-2.220446e-16;0
26.886259;-2.980127;-1.342191;0;0;0;0;0;0;-3.261043e-17;0;0;0;0;3.261043e-17;-3.261043e-17;3.261043e-17;45;0;4.348058e-17;3.765528e-17;0;-6.522087e-17;0;0;6.522087e-17;-1.353225;0;0;0
28.499246;-2.980127;-2.074975;0;0;0;0;0;0;-1.087612e-17;0;0;0;0;1.087612e-17;-1.087612e-17;1.087612e-17;45;0;1.45015e-17;1.255867e-17;0;-2.175225e-17;0;0;2.175225e-17;-2.082711;0;0;0
30.112232;-2.980127;-2.865755;0;0;0;0;-1.110223e-16;-1.110223e-16;-2.370098e-17;0;0;0;0;-8.732132e-17;-1.347233e-16;2.370098e-17;45;0;3.160131e-17;7.89125e-17;-1.110223e-16;-4.352321e-17;-3.878747e-18;-1.110223e-16;3.964447e-17;-2.870796;-2.220446e-16;2.220446e-16;0
31.725218;-2.980127;-3.710098;0;0;0;0;0;0;-1.088386e-17;0;0;0;0;1.088386e-17;-1.088386e-17;1.088386e-17;45;0;1.451181e-17;1.25676e-17;0;-2.176772e-17;0;0;2.176772e-17;-3.720606;0;0;0
33.338204;-2.980127;-4.621638;0;0;0;0;2.220446e-16;0;2.509723e-17;0;0;0;0;2.24846e-16;-2.801343e-18;1.138237e-16;45;0;1.517649e-16;1.508397e-16;2.220446e-16;5.019445e-17;0;0;-5.019445e-17;-4.616792;2.220446e-16;-2.220446e-16;0
34.95119;-2.980127;-5.544362;0;0;0;0;0;-2.220446e-16;-3.064005e-17;0;0;0;0;4.150455e-18;-2.261951e-16;1.151728e-16;45;0;1.535637e-16;1.521991e-16;0;0;-6.128009e-17;-2.220446e-16;-6.128009e-17;-5.542468;-2.220446e-16;2.220446e-16;0
-44.085126;-4.593113;-17.391517;0;0;0;0;0;-1.110223e-16;1.614337e-17;0;0;0;0;2.299715e-18;-1.13322e-16;5.781087e-17;45;0;7.708116e-17;7.632613e-17;0;2.815842e-17;4.128315e-18;-1.110223e-16;-2.403011e-17;-17.387952;-1.110223e-16;1.110223e-16;0
-42.47214;-4.593113;-15.60926;0;0;0;0;-2.220446e-16;-1.110223e-16;-6.684024e-18;0;0;0;0;-1.106213e-16;-2.224456e-16;5.591211e-17;45;0;7.454948e-17;1.284296e-16;-2.220446e-16;-1.634657e-17;2.978519e-18;-1.110223e-16;1.932508e-17;-15.653838;-3.330669e-16;3.330669e-16;0
-40.859154;-4.593113;-13.960759;0;0;0;0;2.220446e-16;-1.110223e-16;6.995782e-18;0;0;0;0;2.221915e-16;-1.111692e-16;1.666803e-16;45;0;2.222404e-16;1.959915e-16;2.220446e-16;1.08961e-17;3.095461e-18;-1.110223e-16;-7.800643e-18;-14.002098;1.110223e-16;-1.110223e-16;0
-39.246168;-4.593113;-12.430426;0;0;0;0;-2.220446e-16;0;5.446141e-18;0;0;0;0;1.334985e-19;-2.221781e-16;1.111558e-16;45;0;1.482077e-16;1.481633e-16;-2.220446e-16;1.089228e-17;0;0;-1.089228e-17;-12.467709;-2.220446e-16;2.220446e-16;0
-37.633182;-4.593113;-11.009051;0;0;0;0;2.220446e-16;-1.110223e-16;2.071641e-17;0;0;0;0;2.233282e-16;-1.123059e-16;1.67817e-16;45;0;2.237561e-16;1.972806e-16;2.220446e-16;3.812594e-17;3.30687e-18;-1.110223e-16;-3.481907e-17;-11.040544;1.110223e-16;-1.110223e-16;0
-36.020196;-4.593113;-9.679975;0;0;0;0;0;0;-2.178241e-17;0;0;0;0;2.178241e-17;-2.178241e-17;2.178241e-17;45;0;2.904322e-17;2.515217e-17;0;-4.356483e-17;0;0;4.356483e-17;-9.706685;0;0;0
-34.40721;-4.593113;-8.431966;0;0;0;0;-1.110223e-16;2.220446e-16;2.101992e-17;0;0;0;0;2.233659e-16;-1.123436e-16;1.678548e-16;45;0;2.238064e-16;1.973234e-16;-1.110223e-16;4.899716e-17;-6.957326e-18;2.220446e-16;-5.595449e-17;-8.456909;1.110223e-16;-1.110223e-16;0
-32.794224;-4.593113;-7.262711;0;0;0;0;0;2.220446e-16;1.998628e-17;0;0;0;0;2.238292e-16;-1.784626e-18;1.128069e-16;45;0;1.504092e-16;1.498179e-16;0;4.354321e-17;-3.570646e-18;2.220446e-16;-4.711385e-17;-7.294238;2.220446e-16;-2.220446e-16;0
-31.181238;-4.593113;-6.192168;0;0;0;0;-1.110223e-16;-1.110223e-16;2.632122e-17;0;0;0;0;-8.470108e-17;-1.373435e-16;2.632122e-17;45;0;3.509496e-17;8.001214e-17;-1.110223e-16;4.898086e-17;3.661575e-18;-1.110223e-16;-4.531929e-17;-6.215955;-2.220446e-16;2.220446e-16;0
-29.568251;-4.593113;-5.196416;0;0;0;0;2.220446e-16;0;-2.449035e-17;0;0;0;0;2.247137e-16;-2.669073e-18;1.136914e-16;45;0;1.515885e-16;1.507067e-16;2.220446e-16;-4.89807e-17;0;0;4.89807e-17;-5.218055;2.220446e-16;-2.220446e-16;0
-27.955265;-4.593113;-4.267315;0;0;0;0;0;-1.110223e-16;-1.986696e-17;0;0;0;0;3.448022e-18;-1.144703e-16;5.895917e-17;45;0;7.861223e-17;7.748847e-17;0;-4.353447e-17;3.800541e-18;-1.110223e-16;4.733501e-17;-4.288817;-1.110223e-16;1.110223e-16;0
-26.342279;-4.593113;-3.40483;0;0;0;0;-1.110223e-16;0;2.7199e-18;0;0;0;0;6.659404e-20;-1.110889e-16;5.557774e-17;45;0;7.410366e-17;7.408148e-17;-1.110223e-16;5.439801e-18;0;0;-5.439801e-18;-3.422708;-1.110223e-16;1.110223e-16;0
-24.729293;-4.593113;-2.599769;0;0;0;0;0;0;-2.1755e-17;0;0;0;0;2.1755e-17;-2.1755e-17;2.1755e-17;45;0;2.900666e-17;2.512051e-17;0;-4.350999e-17;0;0;4.350999e-17;-2.616097;0;0;0
-23.116307;-4.593113;-1.847775;0;0;0;0;0;0;0;0;0;0;0;0;0;0;45;0;0;0;0;0;0;0;0;-1.864086;0;0;0
-21.503321;-4.593113;-1.1477;0;0;0;0;2.220446e-16;0;1.087293e-17;0;0;0;0;2.225757e-16;-5.31148e-19;1.115534e-16;45;0;1.487379e-16;1.485612e-16;2.220446e-16;2.174587e-17;0;0;-2.174587e-17;-1.163289;2.220446e-16;-2.220446e-16;0
-19.890335;-4.593113;-0.496715;0;0;0;0;-1.110223e-16;2.220446e-16;1.155779e-17;0;0;0;0;2.224452e-16;-1.114229e-16;1.66934e-16;45;0;2.225787e-16;1.962792e-16;-1.110223e-16;2.71756e-17;-4.060032e-18;2.220446e-16;-3.123563e-17;-0.517592;1.110223e-16;-1.110223e-16;0
-18.277349;-4.593113;0.089605;0;0;0;0;0;0;-1.086887e-17;0;0;0;0;1.086887e-17;-1.086887e-17;1.086887e-17;45;0;1.449182e-17;1.255029e-17;0;-2.173773e-17;0;0;2.173773e-17;0.067313;0;0;0
-16.664363;-4.593113;0.6089;0;0;0;0;0;2.220446e-16;-2.079242e-18;0;0;0;0;2.220641e-16;-1.946847e-20;1.110418e-16;45;0;1.480557e-16;1.480492e-16;0;0;-4.158485e-18;2.220446e-16;-4.158485e-18;0.591329;2.220446e-16;-2.220446e-16;0
-15.051377;-4.593113;1.076796;0;0;0;0;2.220446e-16;2.220446e-16;-3.450605e-18;0;0;0;0;2.254952e-16;2.18594e-16;3.450605e-18;45;0;4.600806e-18;1.480834e-16;2.220446e-16;-2.716869e-18;-4.18434e-18;2.220446e-16;-1.467471e-18;1.068736;4.440892e-16;-4.440892e-16;0
-13.438391;-4.593113;1.52;0;0;0;0;2.220446e-16;0;-1.222662e-17;0;0;0;0;2.227158e-16;-6.712148e-19;1.116935e-16;45;0;1.489247e-16;1.487015e-16;2.220446e-16;-2.445323e-17;0;0;2.445323e-17;1.497402;2.220446e-16;-2.220446e-16;0
-11.825405;-4.593113;1.890831;0;0;0;0;0;0;0;0;0;0;0;0;0;0;45;0;0;0;0;0;0;0;0;1.873998;0;0;0
-10.212419;-4.593113;2.20423;0;0;0;0;0;0;-1.087036e-17;0;0;0;0;1.087036e-17;-1.087036e-17;1.087036e-17;45;0;1.449382e-17;1.255202e-17;0;-2.174073e-17;0;0;2.174073e-17;2.213897;0;0;0
-8.599433;-4.593113;2.540243;0;0;0;0;-1.110223e-16;0;1.22321e-17;0;0;0;0;1.331721e-18;-1.12354e-16;5.684287e-17;45;0;7.57905e-17;7.535051e-17;-1.110223e-16;2.446419e-17;0;0;-2.446419e-17;2.540027;-1.110223e-16;1.110223e-16;0
-6.986447;-4.593113;2.869018;0;0;0;0;0;2.220446e-16;-1.74862e-18;0;0;0;0;2.220584e-16;-1.376968e-20;1.110361e-16;45;0;1.480481e-16;1.480435e-16;0;-1.359334e-18;-2.137907e-18;2.220446e-16;-7.785735e-19;2.852083;2.220446e-16;-2.220446e-16;0
-5.373461;-4.593113;3.139657;0;0;0;0;2.220446e-16;0;-6.796745e-19;0;0;0;0;2.220467e-16;-2.080452e-21;1.110244e-16;45;0;1.480325e-16;1.480318e-16;2.220446e-16;-1.359349e-18;0;0;1.359349e-18;3.114094;2.220446e-16;-2.220446e-16;0
-3.760475;-4.593113;3.327681;0;0;0;0;0;2.220446e-16;-2.01781e-19;0;0;0;0;2.220448e-16;-1.833665e-22;1.110225e-16;45;0;1.4803e-16;1.480299e-16;0;6.794994e-19;-1.083061e-18;2.220446e-16;-1.762561e-18;3.299442;2.220446e-16;-2.220446e-16;0
-2.147489;-4.593113;3.429709;0;0;0;0;0;2.220446e-16;-2.200897e-17;0;0;0;0;2.242051e-16;-2.160499e-18;1.131828e-16;45;0;1.509104e-16;1.501954e-16;0;-4.347491e-17;-5.430429e-19;2.220446e-16;4.293186e-17;3.412698;2.220446e-16;-2.220446e-16;0
-0.534503;-4.593113;3.48676;0;0;0;0;0;-1.110223e-16;1.100511e-17;0;0;0;0;1.080371e-18;-1.121027e-16;5.659152e-17;45;0;7.545536e-17;7.509783e-17;0;2.173859e-17;2.716422e-19;-1.110223e-16;-2.146694e-17;3.486412;-1.110223e-16;1.110223e-16;0
1.078483;-4.593113;3.556401;0;0;0;0;2.220446e-16;-1.110223e-16;-3.407117e-20;0;0;0;0;2.220446e-16;-1.110223e-16;1.665335e-16;45;0;2.220446e-16;1.958249e-16;2.220446e-16;-3.397333e-19;2.71591e-19;-1.110223e-16;6.113243e-19;3.550024;1.110223e-16;-1.110223e-16;0
2.691469;-4.593113;3.62679;0;0;0;0;-1.110223e-16;0;8.490489e-20;0;0;0;0;6.493142e-23;-1.110224e-16;5.551122e-17;45;0;7.401496e-17;7.401493e-17;-1.110223e-16;1.698098e-19;0;0;-1.698098e-19;3.595663;-1.110223e-16;1.110223e-16;0
4.304455;-4.593113;3.625862;0;0;0;0;2.220446e-16;2.220446e-16;-1.065219e-17;0;0;0;0;2.326968e-16;2.113924e-16;1.065219e-17;45;0;1.420292e-17;1.485399e-16;2.220446e-16;-2.157613e-17;2.71759e-19;2.220446e-16;2.184789e-17;3.593198;4.440892e-16;-4.440892e-16;0
5.917441;-4.593113;3.546345;0;0;0;0;0;0;0;0;0;0;0;0;0;0;45;0;0;0;0;0;0;0;0;3.526797;0;0;0
7.530427;-4.593113;3.423217;0;0;0;0;0;0;0;0;0;0;0;0;0;0;45;0;0;0;0;0;0;0;0;3.412729;0;0;0
9.143413;-4.593113;3.282431;0;0;0;0;0;0;-1.086146e-17;0;0;0;0;1.086146e-17;-1.086146e-17;1.086146e-17;45;0;1.448195e-17;1.254173e-17;0;-2.172292e-17;0;0;2.172292e-17;3.259832;0;0;0
10.756399;-4.593113;3.089473;0;0;0;0;-1.110223e-16;2.220446e-16;1.125863e-17;0;0;0;0;2.224247e-16;-1.114024e-16;1.669136e-16;45;0;2.225514e-16;1.96256e-16;-1.110223e-16;2.036224e-17;2.155015e-18;2.220446e-16;-1.820723e-17;3.06686;1.110223e-16;-1.110223e-16;0
12.369385;-4.593113;2.846059;0;0;0;0;-1.110223e-16;0;-1.153961e-17;0;0;0;0;1.186738e-18;-1.12209e-16;5.669789e-17;45;0;7.559719e-17;7.520473e-17;-1.110223e-16;-2.307923e-17;0;0;2.307923e-17;2.825176;-1.110223e-16;1.110223e-16;0
13.982371;-4.593113;2.555633;0;0;0;0;-1.110223e-16;-1.110223e-16;-2.4252e-18;0;0;0;0;-1.085971e-16;-1.134475e-16;2.4252e-18;45;0;3.2336e-18;7.406782e-17;-1.110223e-16;-2.715114e-18;-2.135285e-18;-1.110223e-16;5.798293e-19;2.537552;-2.220446e-16;2.220446e-16;0
15.595357;-4.593113;2.223192;0;0;0;0;-1.110223e-16;0;-2.307831e-17;0;0;0;0;4.606202e-18;-1.156285e-16;6.011736e-17;45;0;8.015647e-17;7.866603e-17;-1.110223e-16;-4.615661e-17;0;0;4.615661e-17;2.20753;-1.110223e-16;1.110223e-16;0
17.208343;-4.593113;1.85421;0;0;0;0;2.220446e-16;2.220446e-16;3.468815e-18;0;0;0;0;2.255134e-16;2.185758e-16;3.468815e-18;45;0;4.625087e-18;1.480839e-16;2.220446e-16;2.713998e-18;4.223633e-18;2.220446e-16;1.509635e-18;1.833246;4.440892e-16;-4.440892e-16;0
18.821329;-4.593113;1.431484;0;0;0;0;-1.110223e-16;2.220446e-16;1.159609e-17;0;0;0;0;2.224478e-16;-1.114255e-16;1.669367e-16;45;0;2.225823e-16;1.962822e-16;-1.110223e-16;1.900373e-17;4.188437e-18;2.220446e-16;-1.48153e-17;1.410293;1.110223e-16;-1.110223e-16;0
20.434315;-4.593113;0.950883;0;0;0;0;2.220446e-16;2.220446e-16;-1.829808e-17;0;0;0;0;2.403427e-16;2.037465e-16;1.829808e-17;45;0;2.439744e-17;1.4953e-16;2.220446e-16;-4.074595e-17;4.149793e-18;2.220446e-16;4.489575e-17;0.933651;4.440892e-16;-4.440892e-16;0
22.047301;-4.593113;0.416237;0;0;0;0;0;0;-1.087259e-17;0;0;0;0;1.087259e-17;-1.087259e-17;1.087259e-17;45;0;1.449679e-17;1.255459e-17;0;-2.174519e-17;0;0;2.174519e-17;0.406795;0;0;0
23.660287;-4.593113;-0.158584;0;0;0;0;0;2.220446e-16;2.039818e-18;0;0;0;0;2.220633e-16;-1.873726e-20;1.11041e-16;45;0;1.480547e-16;1.480485e-16;0;0;4.079637e-18;2.220446e-16;4.079637e-18;-0.16677;2.220446e-16;-2.220446e-16;0
25.273273;-4.593113;-0.774835;0;0;0;0;-1.110223e-16;0;-1.359624e-18;0;0;0;0;1.6648e-20;-1.11039e-16;5.55278e-17;45;0;7.403707e-17;7.403152e-17;-1.110223e-16;-2.719247e-18;0;0;2.719247e-18;-0.785959;-1.110223e-16;1.110223e-16;0
26.886259;-4.593113;-1.437167;0;0;0;0;0;2.220446e-16;1.287605e-17;0;0;0;0;2.227888e-16;-7.441701e-19;1.117665e-16;45;0;1.49022e-16;1.487745e-16;0;2.175874e-17;3.993362e-18;2.220446e-16;-1.776538e-17;-1.45634;2.220446e-16;-2.220446e-16;0
28.499246;-4.593113;-2.15873;0;0;0;0;2.220446e-16;0;1.22425e-17;0;0;0;0;2.227176e-16;-6.729548e-19;1.116953e-16;45;0;1.48927e-16;1.487032e-16;2.220446e-16;2.4485e-17;0;0;-2.4485e-17;-2.182512;2.220446e-16;-2.220446e-16;0
30.112232;-4.593113;-2.941231;0;0;0;0;-1.110223e-16;0;-1.360382e-18;0;0;0;0;1.666657e-20;-1.11039e-16;5.552782e-17;45;0;7.403709e-17;7.403153e-17;-1.110223e-16;-2.720764e-18;0;0;2.720764e-18;-2.966954;-1.110223e-16;1.110223e-16;0
31.725218;-4.593113;-3.782063;0;0;0;0;-1.110223e-16;2.220446e-16;1.007445e-17;0;0;0;0;2.223491e-16;-1.113268e-16;1.668379e-16;45;0;2.224505e-16;1.961702e-16;-1.110223e-16;1.633184e-17;3.817066e-18;2.220446e-16;-1.251477e-17;-3.815415;1.110223e-16;-1.110223e-16;0
33.338204;-4.593113;-4.700353;0;0;0;0;0;0;0;0;0;0;0;0;0;0;45;0;0;0;0;0;0;0;0;-4.712924;0;0;0
34.95119;-4.593113;-5.632109;0;0;0;0;2.220446e-16;2.220446e-16;-6.759788e-18;0;0;0;0;2.288044e-16;2.152848e-16;6.759788e-18;45;0;9.013051e-18;1.482354e-16;2.220446e-16;-1.885043e-17;5.330857e-18;2.220446e-16;2.418129e-17;-5.640582;4.440892e-16;-4.440892e-16;0
-44.085126;-6.206099;-17.476157;0;0;0;0;2.220446e-16;-2.220446e-16;3.240816e-17;0;0;0;0;2.243972e-16;-2.243972e-16;2.243972e-16;45;0;2.991962e-16;2.591115e-16;2.220446e-16;1.062626e-16;-4.144627e-17;-2.220446e-16;-1.477088e-16;-17.480291;0;0;0
-42.47214;-6.206099;-15.712166;0;0;0;0;2.220446e-16;0;3.894371e-17;0;0;0;0;2.286767e-16;-6.632124e-18;1.176544e-16;45;0;1.568726e-16;1.547093e-16;2.220446e-16;7.788742e-17;0;0;-7.788742e-17;-15.744397;2.220446e-16;-2.220446e-16;0
-40.859154;-6.206099;-14.062118;0;0;0;0;0;-1.110223e-16;1.51678e-17;0;0;0;0;2.034917e-18;-1.130572e-16;5.754607e-17;45;0;7.672809e-17;7.605886e-17;0;2.723789e-17;3.09771e-18;-1.110223e-16;-2.414018e-17;-14.099147;-1.110223e-16;1.110223e-16;0
-39.246168;-6.206099;-12.533894;0;0;0;0;0;-1.110223e-16;1.602245e-18;0;0;0;0;2.311836e-20;-1.110454e-16;5.553427e-17;45;0;7.404569e-17;7.403799e-17;0;0;3.204489e-18;-1.110223e-16;3.204489e-18;-12.564431;-1.110223e-16;1.110223e-16;0
-37.633182;-6.206099;-11.101763;0;0;0;0;-2.220446e-16;2.220446e-16;3.793799e-18;0;0;0;0;2.22077e-16;-2.22077e-16;2.22077e-16;45;0;2.961027e-16;2.564324e-16;-2.220446e-16;1.089061e-17;-3.30301e-18;2.220446e-16;-1.419362e-17;-11.136063;0;0;0
-36.020196;-6.206099;-9.772564;0;0;0;0;0;2.220446e-16;-1.699552e-18;0;0;0;0;2.220576e-16;-1.300778e-20;1.110353e-16;45;0;1.480471e-16;1.480428e-16;0;0;-3.399104e-18;2.220446e-16;-3.399104e-18;-9.801932;2.220446e-16;-2.220446e-16;0
-34.40721;-6.206099;-8.530624;0;0;0;0;-1.110223e-16;0;1.36112e-17;0;0;0;0;1.644361e-18;-1.126667e-16;5.715551e-17;45;0;7.620735e-17;7.566519e-17;-1.110223e-16;2.722239e-17;0;0;-2.722239e-17;-8.554622;-1.110223e-16;1.110223e-16;0
-32.794224;-6.206099;-7.362148;0;0;0;0;0;2.220446e-16;-1.267229e-17;0;0;0;0;2.227655e-16;-7.208785e-19;1.117432e-16;45;0;1.489909e-16;1.487512e-16;0;-2.177408e-17;-3.570491e-18;2.220446e-16;1.820359e-17;-7.393635;2.220446e-16;-2.220446e-16;0
-31.181238;-6.206099;-6.288958;0;0;0;0;2.220446e-16;0;-2.721042e-18;0;0;0;0;2.22078e-16;-3.333996e-20;1.110556e-16;45;0;1.480742e-16;1.480631e-16;2.220446e-16;-5.442085e-18;0;0;5.442085e-18;-6.31426;2.220446e-16;-2.220446e-16;0
-29.568251;-6.206099;-5.290718;0;0;0;0;-1.110223e-16;0;1.08842e-17;0;0;0;0;1.056982e-18;-1.120793e-16;5.656814e-17;45;0;7.542417e-17;7.507433e-17;-1.110223e-16;2.17684e-17;0;0;-2.17684e-17;-5.314249;-1.110223e-16;1.110223e-16;0
-27.955265;-6.206099;-4.3592;0;0;0;0;0;0;0;0;0;0;0;0;0;0;45;0;0;0;0;0;0;0;0;-4.384785;0;0;0
-26.342279;-6.206099;-3.500317;0;0;0;0;2.220446e-16;2.220446e-16;-4.652619e-18;0;0;0;0;2.266972e-16;2.17392e-16;4.652619e-18;45;0;6.203491e-18;1.481272e-16;2.220446e-16;-5.439772e-18;-3.865466e-18;2.220446e-16;1.574306e-18;-3.520458;4.440892e-16;-4.440892e-16;0
-24.729293;-6.206099;-2.698298;0;0;0;0;-1.110223e-16;2.220446e-16;1.163834e-17;0;0;0;0;2.224508e-16;-1.114285e-16;1.669396e-16;45;0;2.225862e-16;1.962855e-16;-1.110223e-16;2.719444e-17;-3.917759e-18;2.220446e-16;-3.11122e-17;-2.716352;1.110223e-16;-1.110223e-16;0
-23.116307;-6.206099;-1.947657;0;0;0;0;0;0;0;0;0;0;0;0;0;0;45;0;0;0;0;0;0;0;0;-1.965009;0;0;0
-21.503321;-6.206099;-1.250757;0;0;0;0;0;-1.110223e-16;-7.511472e-18;0;0;0;0;5.059009e-19;-1.115282e-16;5.601705e-17;45;0;7.46894e-17;7.452134e-17;0;-1.903333e-17;4.010385e-18;-1.110223e-16;2.304371e-17;-1.263397;-1.110223e-16;1.110223e-16;0
-19.890335;-6.206099;-0.60025;0;0;0;0;-1.110223e-16;-1.110223e-16;-1.836269e-17;0;0;0;0;-9.265961e-17;-1.29385e-16;1.836269e-17;45;0;2.448358e-17;7.699211e-17;-1.110223e-16;-4.078535e-17;4.05997e-18;-1.110223e-16;4.484532e-17;-0.617035;-2.220446e-16;2.220446e-16;0
-18.277349;-6.206099;-0.014346;0;0;0;0;0;0;0;0;0;0;0;0;0;0;45;0;0;0;0;0;0;0;0;-0.032181;0;0;0
-16.664363;-6.206099;0.502961;0;0;0;0;-1.110223e-16;-1.110223e-16;-8.473351e-18;0;0;0;0;-1.025489e-16;-1.194956e-16;8.473351e-18;45;0;1.12978e-17;7.465876e-17;-1.110223e-16;-1.902568e-17;2.078979e-18;-1.110223e-16;2.110466e-17;0.49234;-2.220446e-16;2.220446e-16;0
-15.051377;-6.206099;0.973648;0;0;0;0;0;2.220446e-16;8.782557e-18;0;0;0;0;2.223914e-16;-3.468358e-19;1.113691e-16;45;0;1.484922e-16;1.483767e-16;0;2.174679e-17;-4.181677e-18;2.220446e-16;-2.592847e-17;0.971745;2.220446e-16;-2.220446e-16;0
-13.438391;-6.206099;1.423509;0;0;0;0;0;-1.110223e-16;-9.821035e-18;0;0;0;0;8.620751e-19;-1.118844e-16;5.637323e-17;45;0;7.51643e-17;7.48786e-17;0;-2.174958e-17;2.107505e-18;-1.110223e-16;2.385708e-17;1.401931;-1.110223e-16;1.110223e-16;0
-11.825405;-6.206099;1.796624;0;0;0;0;-1.110223e-16;-1.110223e-16;-2.000223e-17;0;0;0;0;-9.102007e-17;-1.310245e-16;2.000223e-17;45;0;2.666964e-17;7.753485e-17;-1.110223e-16;-4.213175e-17;2.127281e-18;-1.110223e-16;4.425903e-17;1.778972;-2.220446e-16;2.220446e-16;0
-10.212419;-6.206099;2.112147;0;0;0;0;2.220446e-16;0;-1.155064e-17;0;0;0;0;2.226439e-16;-5.992412e-19;1.116215e-16;45;0;1.488287e-16;1.486294e-16;2.220446e-16;-2.310129e-17;0;0;2.310129e-17;2.118785;2.220446e-16;-2.220446e-16;0
-8.599433;-6.206099;2.451136;0;0;0;0;0;0;0;0;0;0;0;0;0;0;45;0;0;0;0;0;0;0;0;2.446766;0;0;0
-6.986447;-6.206099;2.785121;0;0;0;0;0;-1.110223e-16;1.068573e-18;0;0;0;0;1.02839e-20;-1.110326e-16;5.552143e-17;45;0;7.402858e-17;7.402515e-17;0;0;2.137146e-18;-1.110223e-16;2.137146e-18;2.761443;-1.110223e-16;1.110223e-16;0
-5.373461;-6.206099;3.058284;0;0;0;0;2.220446e-16;2.220446e-16;-1.262902e-17;0;0;0;0;2.346736e-16;2.094156e-16;1.262902e-17;45;0;1.68387e-17;1.487463e-16;2.220446e-16;-2.310454e-17;-2.153502e-18;2.220446e-16;2.095104e-17;3.023446;4.440892e-16;-4.440892e-16;0
-3.760475;-6.206099;3.238672;0;0;0;0;0;0;2.13952e-17;0;0;0;0;2.13952e-17;-2.13952e-17;2.13952e-17;45;0;2.852693e-17;2.470505e-17;0;4.27904e-17;0;0;-4.27904e-17;3.205249;0;0;0
-2.147489;-6.206099;3.331573;0;0;0;0;-1.110223e-16;2.220446e-16;6.78113e-20;0;0;0;0;2.220446e-16;-1.110223e-16;1.665335e-16;45;0;2.220446e-16;1.95825e-16;-1.110223e-16;6.787342e-19;-5.431116e-19;2.220446e-16;-1.221846e-18;3.314093;1.110223e-16;-1.110223e-16;0
-0.534503;-6.206099;3.386687;0;0;0;0;-1.110223e-16;0;-1.068732e-17;0;0;0;0;1.019431e-18;-1.120417e-16;5.653058e-17;45;0;7.537411e-17;7.503661e-17;-1.110223e-16;-2.137464e-17;0;0;2.137464e-17;3.386255;-1.110223e-16;1.110223e-16;0
1.078483;-6.206099;3.456056;0;0;0;0;0;0;0;0;0;0;0;0;0;0;45;0;0;0;0;0;0;0;0;3.451152;0;0;0
2.691469;-6.206099;3.52606;0;0;0;0;0;0;-8.482684e-20;0;0;0;0;8.482684e-20;-8.482684e-20;8.482684e-20;45;0;1.131024e-19;9.794959e-20;0;-1.696537e-19;0;0;1.696537e-19;3.499072;0;0;0
4.304455;-6.206099;3.528708;0;0;0;0;0;-1.110223e-16;1.072489e-17;0;0;0;0;1.026547e-18;-1.120489e-16;5.65377e-17;45;0;7.53836e-17;7.504376e-17;0;2.172156e-17;-2.71767e-19;-1.110223e-16;-2.199332e-17;3.498157;-1.110223e-16;1.110223e-16;0
5.917441;-6.206099;3.450331;0;0;0;0;0;-1.110223e-16;-2.712967e-19;0;0;0;0;6.629428e-22;-1.11023e-16;5.551181e-17;45;0;7.401575e-17;7.401553e-17;0;0;-5.425933e-19;-1.110223e-16;-5.425933e-19;3.431825;-1.110223e-16;1.110223e-16;0
7.530427;-6.206099;3.321616;0;0;0;0;0;2.220446e-16;1.140397e-17;0;0;0;0;2.226288e-16;-5.84159e-19;1.116065e-16;45;0;1.488086e-16;1.486143e-16;0;2.172462e-17;1.083325e-18;2.220446e-16;-2.06413e-17;3.314045;2.220446e-16;-2.220446e-16;0
9.143413;-6.206099;3.169192;0;0;0;0;0;-1.110223e-16;-1.139771e-17;0;0;0;0;1.158027e-18;-1.121803e-16;5.666918e-17;45;0;7.555891e-17;7.517587e-17;0;-2.171438e-17;-1.081043e-18;-1.110223e-16;2.063334e-17;3.15624;-1.110223e-16;1.110223e-16;0
10.756399;-6.206099;2.972511;0;0;0;0;0;2.220446e-16;1.077547e-18;0;0;0;0;2.220498e-16;-5.229044e-21;1.110275e-16;45;0;1.480367e-16;1.48035e-16;0;6.715343e-23;2.155028e-18;2.220446e-16;2.15496e-18;2.960632;2.220446e-16;-2.220446e-16;0
12.369385;-6.206099;2.73245;0;0;0;0;-1.110223e-16;0;2.103922e-17;0;0;0;0;3.853289e-18;-1.148756e-16;5.936444e-17;45;0;7.915259e-17;7.789993e-17;-1.110223e-16;4.207844e-17;0;0;-4.207844e-17;2.720597;-1.110223e-16;1.110223e-16;0
13.982371;-6.206099;2.44521;0;0;0;0;0;0;-6.790099e-19;0;0;0;0;6.790099e-19;-6.790099e-19;6.790099e-19;45;0;9.053465e-19;7.840531e-19;0;-1.35802e-18;0;0;1.35802e-18;2.435704;0;0;0
15.595357;-6.206099;2.110912;0;0;0;0;0;2.220446e-16;1.061983e-18;0;0;0;0;2.220497e-16;-5.079083e-21;1.110274e-16;45;0;1.480365e-16;1.480348e-16;0;0;2.123967e-18;2.220446e-16;2.123967e-18;2.105287;2.220446e-16;-2.220446e-16;0
17.208343;-6.206099;1.734537;0;0;0;0;0;-1.110223e-16;-1.055342e-18;0;0;0;0;1.003083e-20;-1.110323e-16;5.552118e-17;45;0;7.402824e-17;7.40249e-17;0;0;-2.110683e-18;-1.110223e-16;-2.110683e-18;1.728383;-1.110223e-16;1.110223e-16;0
18.821329;-6.206099;1.312529;0;0;0;0;2.220446e-16;2.220446e-16;3.453382e-18;0;0;0;0;2.25498e-16;2.185912e-16;3.453382e-18;45;0;4.604509e-18;1.480834e-16;2.220446e-16;2.716301e-18;4.190463e-18;2.220446e-16;1.474162e-18;1.304251;4.440892e-16;-4.440892e-16;0
20.434315;-6.206099;0.84338;0;0;0;0;0;-1.110223e-16;-1.039182e-18;0;0;0;0;9.726015e-21;-1.11032e-16;5.552088e-17;45;0;7.402783e-17;7.402459e-17;0;0;-2.078364e-18;-1.110223e-16;-2.078364e-18;0.831485;-1.110223e-16;1.110223e-16;0
22.047301;-6.206099;0.326171;0;0;0;0;0;0;1.087685e-17;0;0;0;0;1.087685e-17;-1.087685e-17;1.087685e-17;45;0;1.450247e-17;1.255951e-17;0;2.17537e-17;0;0;-2.17537e-17;0.309821;0;0;0
23.660287;-6.206099;-0.241978;0;0;0;0;2.220446e-16;0;1.359835e-18;0;0;0;0;2.220529e-16;-8.327529e-21;1.110306e-16;45;0;1.480408e-16;1.480381e-16;2.220446e-16;2.719671e-18;0;0;-2.719671e-18;-0.260843;2.220446e-16;-2.220446e-16;0
25.273273;-6.206099;-0.861024;0;0;0;0;0;2.220446e-16;6.591167e-19;0;0;0;0;2.220466e-16;-1.956503e-21;1.110243e-16;45;0;1.480323e-16;1.480317e-16;0;-2.719404e-18;4.037638e-18;2.220446e-16;6.757042e-18;-0.881234;2.220446e-16;-2.220446e-16;0
26.886259;-6.206099;-1.530924;0;0;0;0;0;0;0;0;0;0;0;0;0;0;45;0;0;0;0;0;0;0;0;-1.553073;0;0;0
28.499246;-6.206099;-2.254446;0;0;0;0;2.220446e-16;0;1.087484e-17;0;0;0;0;2.225759e-16;-5.313334e-19;1.115536e-16;45;0;1.487382e-16;1.485614e-16;2.220446e-16;2.174967e-17;0;0;-2.174967e-17;-2.279442;2.220446e-16;-2.220446e-16;0
30.112232;-6.206099;-3.037182;0;0;0;0;-1.110223e-16;0;-2.718588e-18;0;0;0;0;6.652982e-20;-1.110888e-16;5.557768e-17;45;0;7.410358e-17;7.408141e-17;-1.110223e-16;-5.437176e-18;0;0;5.437176e-18;-3.062696;-1.110223e-16;1.110223e-16;0
31.725218;-6.206099;-3.878107;0;0;0;0;2.220446e-16;2.220446e-16;-6.250589e-18;0;0;0;0;2.282952e-16;2.15794e-16;6.250589e-18;45;0;8.334119e-18;1.482056e-16;2.220446e-16;-1.63159e-17;3.814717e-18;2.220446e-16;2.013061e-17;-3.911462;4.440892e-16;-4.440892e-16;0
33.338204;-6.206099;-4.80231;0;0;0;0;0;0;0;0;0;0;0;0;0;0;45;0;0;0;0;0;0;0;0;-4.812618;0;0;0
34.95119;-6.206099;-5.745274;0;0;0;0;2.220446e-16;0;-9.235958e-18;0;0;0;0;2.224281e-16;-3.835078e-19;1.114058e-16;45;0;1.485411e-16;1.484134e-16;2.220446e-16;-1.847192e-17;0;0;1.847192e-17;-5.747027;2.220446e-16;-2.220446e-16;0
-42.47214;-7.819085;-15.799208;0;0;0;0;2.220446e-16;-1.110223e-16;-1.246216e-18;0;0;0;0;2.220493e-16;-1.11027e-16;1.665381e-16;45;0;2.220508e-16;1.958302e-16;2.220446e-16;1.301607e-17;-1.55085e-17;-1.110223e-16;-2.852457e-17;-15.825791;1.110223e-16;-1.110223e-16;0
-40.859154;-7.819085;-14.15117;0;0;0;0;0;-1.110223e-16;-9.346421e-18;0;0;0;0;7.813305e-19;-1.118036e-16;5.629248e-17;45;0;7.505664e-17;7.479756e-17;0;-2.179359e-17;3.10075e-18;-1.110223e-16;2.489434e-17;-14.192683;-1.110223e-16;1.110223e-16;0
-39.246168;-7.819085;-12.633324;0;0;0;0;0;0;-1.089494e-17;0;0;0;0;1.089494e-17;-1.089494e-17;1.089494e-17;45;0;1.452659e-17;1.25804e-17;0;-2.178989e-17;0;0;2.178989e-17;-12.657832;0;0;0
-37.633182;-7.819085;-11.197374;0;0;0;0;2.220446e-16;0;-1.633945e-17;0;0;0;0;2.232405e-16;-1.195919e-18;1.122182e-16;45;0;1.496243e-16;1.492272e-16;2.220446e-16;-3.26789e-17;0;0;3.26789e-17;-11.229996;2.220446e-16;-2.220446e-16;0
-36.020196;-7.819085;-9.866195;0;0;0;0;-2.220446e-16;0;-8.169505e-18;0;0;0;0;3.001681e-19;-2.223448e-16;1.113225e-16;45;0;1.4843e-16;1.4833e-16;-2.220446e-16;-1.633901e-17;0;0;1.633901e-17;-9.896011;-2.220446e-16;2.220446e-16;0
-34.40721;-7.819085;-8.627875;0;0;0;0;0;-1.110223e-16;1.741839e-18;0;0;0;0;2.732116e-20;-1.110496e-16;5.553847e-17;45;0;7.40513e-17;7.404219e-17;0;0;3.483679e-18;-1.110223e-16;3.483679e-18;-8.650068;-1.110223e-16;1.110223e-16;0
-32.794224;-7.819085;-7.457538;0;0;0;0;0;2.220446e-16;-1.267335e-17;0;0;0;0;2.227656e-16;-7.209991e-19;1.117433e-16;45;0;1.489911e-16;1.487513e-16;0;-2.177503e-17;-3.57167e-18;2.220446e-16;1.820336e-17;-7.490956;2.220446e-16;-2.220446e-16;0
-31.181238;-7.819085;-6.388723;0;0;0;0;0;2.220446e-16;-1.829831e-18;0;0;0;0;2.220597e-16;-1.50783e-20;1.110374e-16;45;0;1.480498e-16;1.480448e-16;0;0;-3.659663e-18;2.220446e-16;-3.659663e-18;-6.411611;2.220446e-16;-2.220446e-16;0
-29.568251;-7.819085;-5.388957;0;0;0;0;-1.110223e-16;2.220446e-16;-1.002759e-17;0;0;0;0;2.223462e-16;-1.113239e-16;1.668351e-16;45;0;2.224468e-16;1.96167e-16;-1.110223e-16;-1.632596e-17;-3.729218e-18;2.220446e-16;1.259674e-17;-5.410736;1.110223e-16;-1.110223e-16;0
-27.955265;-7.819085;-4.455783;0;0;0;0;-1.110223e-16;2.220446e-16;-1.278371e-17;0;0;0;0;2.225345e-16;-1.115122e-16;1.670234e-16;45;0;2.226979e-16;1.963805e-16;-1.110223e-16;-2.17658e-17;-3.801625e-18;2.220446e-16;1.796417e-17;-4.480495;1.110223e-16;-1.110223e-16;0
-26.342279;-7.819085;-3.599526;0;0;0;0;2.220446e-16;2.220446e-16;6.226691e-18;0;0;0;0;2.282713e-16;2.158179e-16;6.226691e-18;45;0;8.302255e-18;1.482042e-16;2.220446e-16;1.6321e-17;-3.867616e-18;2.220446e-16;-2.018861e-17;-3.616835;4.440892e-16;-4.440892e-16;0
-24.729293;-7.819085;-2.799089;0;0;0;0;2.220446e-16;2.220446e-16;-2.643612e-17;0;0;0;0;2.484807e-16;1.956085e-16;2.643612e-17;45;0;3.524816e-17;1.511444e-16;2.220446e-16;-4.895286e-17;-3.919376e-18;2.220446e-16;4.503348e-17;-2.814608;4.440892e-16;-4.440892e-16;0
-23.116307;-7.819085;-2.049905;0;0;0;0;2.220446e-16;-1.110223e-16;1.014027e-17;0;0;0;0;2.22353e-16;-1.113307e-16;1.668419e-16;45;0;2.224559e-16;1.961747e-16;2.220446e-16;1.631682e-17;3.963724e-18;-1.110223e-16;-1.23531e-17;-2.06283;1.110223e-16;-1.110223e-16;0
-21.503321;-7.819085;-1.344127;0;0;0;0;0;-1.110223e-16;2.002775e-18;0;0;0;0;3.611708e-20;-1.110584e-16;5.554727e-17;45;0;7.406303e-17;7.405099e-17;0;0;4.005549e-18;-1.110223e-16;4.005549e-18;-1.358823;-1.110223e-16;1.110223e-16;0
-19.890335;-7.819085;-0.685683;0;0;0;0;-1.110223e-16;0;1.224075e-17;0;0;0;0;1.333584e-18;-1.123559e-16;5.684473e-17;45;0;7.579298e-17;7.535239e-17;-1.110223e-16;2.44815e-17;0;0;-2.44815e-17;-0.710435;-1.110223e-16;1.110223e-16;0
-18.277349;-7.819085;-0.103345;0;0;0;0;2.220446e-16;2.220446e-16;-3.41859e-18;0;0;0;0;2.254632e-16;2.18626e-16;3.41859e-18;45;0;4.55812e-18;1.480824e-16;2.220446e-16;-2.719327e-18;-4.117854e-18;2.220446e-16;-1.398527e-18;-0.126304;4.440892e-16;-4.440892e-16;0
-16.664363;-7.819085;0.409239;0;0;0;0;2.220446e-16;0;-1.087641e-17;0;0;0;0;2.225761e-16;-5.314871e-19;1.115538e-16;45;0;1.487384e-16;1.485615e-16;2.220446e-16;-2.175282e-17;0;0;2.175282e-17;0.397769;2.220446e-16;-2.220446e-16;0
-15.051377;-7.819085;0.887604;0;0;0;0;0;0;1.087711e-17;0;0;0;0;1.087711e-17;-1.087711e-17;1.087711e-17;45;0;1.450281e-17;1.25598e-17;0;2.175421e-17;0;0;-2.175421e-17;0.878188;0;0;0
-13.438391;-7.819085;1.343047;0;0;0;0;2.220446e-16;-1.110223e-16;-9.819858e-18;0;0;0;0;2.223339e-16;-1.113116e-16;1.668227e-16;45;0;2.224303e-16;1.96153e-16;2.220446e-16;-2.174814e-17;2.108425e-18;-1.110223e-16;2.385657e-17;1.307705;1.110223e-16;-1.110223e-16;0
-11.825405;-7.819085;1.705317;0;0;0;0;0;-1.110223e-16;-9.801929e-18;0;0;0;0;8.587497e-19;-1.11881e-16;5.63699e-17;45;0;7.515987e-17;7.487526e-17;0;-2.173301e-17;2.129155e-18;-1.110223e-16;2.386217e-17;1.681029;-1.110223e-16;1.110223e-16;0
-10.212419;-7.819085;2.015038;0;0;0;0;0;2.220446e-16;-1.065963e-18;0;0;0;0;2.220497e-16;-5.117217e-21;1.110274e-16;45;0;1.480366e-16;1.480348e-16;0;0;-2.131925e-18;2.220446e-16;-2.131925e-18;2.017153;2.220446e-16;-2.220446e-16;0
-8.599433;-7.819085;2.3535;0;0;0;0;0;0;1.086056e-17;0;0;0;0;1.086056e-17;-1.086056e-17;1.086056e-17;45;0;1.448074e-17;1.254069e-17;0;2.172112e-17;0;0;-2.172112e-17;2.345353;0;0;0
-6.986447;-7.819085;2.690462;0;0;0;0;0;0;0;0;0;0;0;0;0;0;45;0;0;0;0;0;0;0;0;2.662491;0;0;0
-5.373461;-7.819085;2.965571;0;0;0;0;0;0;-1.086017e-17;0;0;0;0;1.086017e-17;-1.086017e-17;1.086017e-17;45;0;1.448023e-17;1.254025e-17;0;-2.172035e-17;0;0;2.172035e-17;2.924096;0;0;0
-3.760475;-7.819085;3.136547;0;0;0;0;0;0;-1.085585e-17;0;0;0;0;1.085585e-17;-1.085585e-17;1.085585e-17;45;0;1.447446e-17;1.253525e-17;0;-2.171169e-17;0;0;2.171169e-17;3.102611;0;0;0
-2.147489;-7.819085;3.21955;0;0;0;0;-1.110223e-16;-1.110223e-16;4.411399e-19;0;0;0;0;-1.105812e-16;-1.114634e-16;4.411399e-19;45;0;5.881866e-19;7.401662e-17;-1.110223e-16;3.391017e-19;5.431781e-19;-1.110223e-16;2.040764e-19;3.207281;-2.220446e-16;2.220446e-16;0
-0.534503;-7.819085;3.269659;0;0;0;0;-1.110223e-16;-1.110223e-16;-1.041112e-17;0;0;0;0;-1.006112e-16;-1.214334e-16;1.041112e-17;45;0;1.38815e-17;7.498482e-17;-1.110223e-16;-2.136552e-17;5.432771e-19;-1.110223e-16;2.19088e-17;3.278142;-2.220446e-16;2.220446e-16;0
1.078483;-7.819085;3.339901;0;0;0;0;-1.110223e-16;2.220446e-16;-1.019591e-19;0;0;0;0;2.220446e-16;-1.110223e-16;1.665335e-16;45;0;2.220447e-16;1.95825e-16;-1.110223e-16;3.392152e-19;-5.431335e-19;2.220446e-16;-8.823486e-19;3.344338;1.110223e-16;-1.110223e-16;0
2.691469;-7.819085;3.41206;0;0;0;0;0;2.220446e-16;-1.358775e-19;0;0;0;0;2.220447e-16;-8.314859e-23;1.110224e-16;45;0;1.480298e-16;1.480298e-16;0;0;-2.71755e-19;2.220446e-16;-2.71755e-19;3.395094;2.220446e-16;-2.220446e-16;0
4.304455;-7.819085;3.419811;0;0;0;0;2.220446e-16;2.220446e-16;2.207162e-19;0;0;0;0;2.222653e-16;2.218239e-16;2.207162e-19;45;0;2.942883e-19;1.4803e-16;2.220446e-16;1.696504e-19;2.717821e-19;2.220446e-16;1.021316e-19;3.397216;4.440892e-16;-4.440892e-16;0
5.917441;-7.819085;3.347441;0;0;0;0;0;-1.110223e-16;-2.200138e-17;0;0;0;0;4.201065e-18;-1.152234e-16;5.971222e-17;45;0;7.961629e-17;7.825353e-17;0;-4.346011e-17;-5.426557e-19;-1.110223e-16;4.291746e-17;3.333488;-1.110223e-16;1.110223e-16;0
7.530427;-7.819085;3.223091;0;0;0;0;2.220446e-16;-1.110223e-16;-2.020023e-19;0;0;0;0;2.220447e-16;-1.110224e-16;1.665336e-16;45;0;2.220448e-16;1.958251e-16;2.220446e-16;6.791679e-19;-1.083172e-18;-1.110223e-16;-1.76234e-18;3.214607;1.110223e-16;-1.110223e-16;0
9.143413;-7.819085;3.062744;0;0;0;0;0;-1.110223e-16;-1.140578e-17;0;0;0;0;1.15965e-18;-1.12182e-16;5.66708e-17;45;0;7.556107e-17;7.51775e-17;0;-2.173091e-17;-1.080646e-18;-1.110223e-16;2.065027e-17;3.053641;-1.110223e-16;1.110223e-16;0
10.756399;-7.819085;2.861883;0;0;0;0;0;0;-1.086442e-17;0;0;0;0;1.086442e-17;-1.086442e-17;1.086442e-17;45;0;1.448589e-17;1.254515e-17;0;-2.172883e-17;0;0;2.172883e-17;2.855876;0;0;0
12.369385;-7.819085;2.628944;0;0;0;0;-1.110223e-16;0;2.10564e-17;0;0;0;0;3.85938e-18;-1.148817e-16;5.937053e-17;45;0;7.916071e-17;7.790612e-17;-1.110223e-16;4.21128e-17;0;0;-4.21128e-17;2.618331;-1.110223e-16;1.110223e-16;0
13.982371;-7.819085;2.353216;0;0;0;0;0;2.220446e-16;1.06867e-18;0;0;0;0;2.220497e-16;-5.143243e-21;1.110275e-16;45;0;1.480366e-16;1.480349e-16;0;0;2.13734e-18;2.220446e-16;2.13734e-18;2.338157;2.220446e-16;-2.220446e-16;0
15.595357;-7.819085;2.025719;0;0;0;0;0;2.220446e-16;3.8216e-19;0;0;0;0;2.220453e-16;-6.57732e-22;1.11023e-16;45;0;1.480306e-16;1.480304e-16;0;-1.359672e-18;2.123992e-18;2.220446e-16;3.483663e-18;2.009548;2.220446e-16;-2.220446e-16;0
17.208343;-7.819085;1.644955;0;0;0;0;2.220446e-16;0;1.223654e-17;0;0;0;0;2.227169e-16;-6.723013e-19;1.116946e-16;45;0;1.489261e-16;1.487025e-16;2.220446e-16;2.447308e-17;0;0;-2.447308e-17;1.630904;2.220446e-16;-2.220446e-16;0
18.821329;-7.819085;1.217912;0;0;0;0;-1.110223e-16;0;-1.359293e-18;0;0;0;0;1.663991e-20;-1.110389e-16;5.552779e-17;45;0;7.403705e-17;7.403151e-17;-1.110223e-16;-2.718586e-18;0;0;2.718586e-18;1.204131;-1.110223e-16;1.110223e-16;0
20.434315;-7.819085;0.748365;0;0;0;0;0;-1.110223e-16;9.832742e-18;0;0;0;0;8.641158e-19;-1.118864e-16;5.637526e-17;45;0;7.516702e-17;7.488064e-17;0;2.174485e-17;-2.079367e-18;-1.110223e-16;-2.382422e-17;0.731985;-1.110223e-16;1.110223e-16;0
22.047301;-7.819085;0.236402;0;0;0;0;0;0;0;0;0;0;0;0;0;0;45;0;0;0;0;0;0;0;0;0.212567;0;0;0
23.660287;-7.819085;-0.332482;0;0;0;0;0;0;1.087228e-17;0;0;0;0;1.087228e-17;-1.087228e-17;1.087228e-17;45;0;1.449637e-17;1.255423e-17;0;2.174456e-17;0;0;-2.174456e-17;-0.35708;0;0;0
25.273273;-7.819085;-0.957493;0;0;0;0;2.220446e-16;-1.110223e-16;-6.578112e-19;0;0;0;0;2.220459e-16;-1.110236e-16;1.665348e-16;45;0;2.220463e-16;1.958264e-16;2.220446e-16;2.71721e-18;-4.032832e-18;-1.110223e-16;-6.750042e-18;-0.979918;1.110223e-16;-1.110223e-16;0
26.886259;-7.819085;-1.636623;0;0;0;0;0;0;0;0;0;0;0;0;0;0;45;0;0;0;0;0;0;0;0;-1.655319;0;0;0
28.499246;-7.819085;-2.366416;0;0;0;0;0;-1.110223e-16;-1.968251e-18;0;0;0;0;3.488303e-20;-1.110572e-16;5.554603e-17;45;0;7.406138e-17;7.404975e-17;0;0;-3.936501e-18;-1.110223e-16;-3.936501e-18;-2.384383;-1.110223e-16;1.110223e-16;0
30.112232;-7.819085;-3.152258;0;0;0;0;-1.110223e-16;-1.110223e-16;-1.553178e-17;0;0;0;0;-9.549052e-17;-1.265541e-16;1.553178e-17;45;0;2.070904e-17;7.615674e-17;-1.110223e-16;-2.718103e-17;-3.882525e-18;-1.110223e-16;2.32985e-17;-3.168459;-2.220446e-16;2.220446e-16;0
31.725218;-7.819085;-3.993826;0;0;0;0;-1.110223e-16;0;-1.359348e-17;0;0;0;0;1.640144e-18;-1.126624e-16;5.71513e-17;45;0;7.620172e-17;7.566094e-17;-1.110223e-16;-2.718696e-17;0;0;2.718696e-17;-4.017674;-1.110223e-16;1.110223e-16;0
33.338204;-7.819085;-4.915827;0;0;0;0;0;-1.110223e-16;-2.363359e-17;0;0;0;0;4.821547e-18;-1.158439e-16;6.03327e-17;45;0;8.04436e-17;7.888555e-17;0;-4.350611e-17;-3.76107e-18;-1.110223e-16;3.974504e-17;-4.921458;-1.110223e-16;1.110223e-16;0
34.95119;-7.819085;-5.863697;0;0;0;0;-2.220446e-16;0;-1.886207e-17;0;0;0;0;1.590883e-18;-2.236355e-16;1.126132e-16;45;0;1.501509e-16;1.496234e-16;-2.220446e-16;-3.772415e-17;0;0;3.772415e-17;-5.860933;-2.220446e-16;2.220446e-16;0
-42.47214;-9.432071;-15.888482;0;0;0;0;0;-1.110223e-16;1.533135e-17;0;0;0;0;2.078243e-18;-1.131006e-16;5.758939e-17;45;0;7.678586e-17;7.610257e-17;0;0;3.066271e-17;-1.110223e-16;3.066271e-17;-15.91977;-1.110223e-16;1.110223e-16;0
-40.859154;-9.432071;-14.235107;0;0;0;0;0;2.220446e-16;-1.549634e-18;0;0;0;0;2.220554e-16;-1.081427e-20;1.110331e-16;45;0;1.480442e-16;1.480406e-16;0;0;-3.099269e-18;2.220446e-16;-3.099269e-18;-14.284429;2.220446e-16;-2.220446e-16;0
-39.246168;-9.432071;-12.718679;0;0;0;0;2.220446e-16;0;-1.361891e-17;0;0;0;0;2.228768e-16;-8.321848e-19;1.118545e-16;45;0;1.491393e-16;1.488627e-16;2.220446e-16;-2.723782e-17;0;0;2.723782e-17;-12.749414;2.220446e-16;-2.220446e-16;0
-37.633182;-9.432071;-11.28706;0;0;0;0;-2.220446e-16;0;2.722507e-18;0;0;0;0;3.337586e-20;-2.22078e-16;1.110557e-16;45;0;1.480742e-16;1.480631e-16;-2.220446e-16;5.445014e-18;0;0;-5.445014e-18;-11.32275;-2.220446e-16;2.220446e-16;0
-36.020196;-9.432071;-9.959109;0;0;0;0;-2.220446e-16;0;1.361368e-17;0;0;0;0;8.315481e-19;-2.228762e-16;1.118539e-16;45;0;1.491385e-16;1.488621e-16;-2.220446e-16;2.722736e-17;0;0;-2.722736e-17;-9.990271;-2.220446e-16;2.220446e-16;0
-34.40721;-9.432071;-8.72153;0;0;0;0;2.220446e-16;0;2.017227e-22;0;0;0;0;2.220446e-16;-1.832622e-28;1.110223e-16;45;0;1.480297e-16;1.480297e-16;2.220446e-16;4.034454e-22;0;0;-4.034454e-22;-8.745909;2.220446e-16;-2.220446e-16;0
-32.794224;-9.432071;-7.553026;0;0;0;0;0;-1.110223e-16;2.356085e-17;0;0;0;0;4.79309e-18;-1.158154e-16;6.030424e-17;45;0;8.040565e-17;7.885653e-17;0;4.354743e-17;3.574266e-18;-1.110223e-16;-3.997317e-17;-7.588721;-1.110223e-16;1.110223e-16;0
-31.181238;-9.432071;-6.488186;0;0;0;0;-1.110223e-16;-1.110223e-16;1.27143e-17;0;0;0;0;-9.830801e-17;-1.237366e-16;1.27143e-17;45;0;1.69524e-17;7.545686e-17;-1.110223e-16;2.176808e-17;3.660512e-18;-1.110223e-16;-1.810757e-17;-6.51049;-2.220446e-16;2.220446e-16;0
-29.568251;-9.432071;-5.486249;0;0;0;0;0;0;1.088307e-17;0;0;0;0;1.088307e-17;-1.088307e-17;1.088307e-17;45;0;1.451076e-17;1.256669e-17;0;2.176615e-17;0;0;-2.176615e-17;-5.509421;0;0;0
-27.955265;-9.432071;-4.549849;0;0;0;0;-1.110223e-16;2.220446e-16;-1.900499e-18;0;0;0;0;2.220555e-16;-1.110331e-16;1.665443e-16;45;0;2.220591e-16;1.958372e-16;-1.110223e-16;-6.719323e-22;-3.800326e-18;2.220446e-16;-3.799654e-18;-4.577927;1.110223e-16;-1.110223e-16;0
-26.342279;-9.432071;-3.693861;0;0;0;0;2.220446e-16;0;-1.088094e-17;0;0;0;0;2.225765e-16;-5.319292e-19;1.115542e-16;45;0;1.48739e-16;1.48562e-16;2.220446e-16;-2.176189e-17;0;0;2.176189e-17;-3.714239;2.220446e-16;-2.220446e-16;0
-24.729293;-9.432071;-2.895596;0;0;0;0;0;-1.110223e-16;2.371818e-17;0;0;0;0;4.854733e-18;-1.15877e-16;6.036589e-17;45;0;8.048784e-17;7.891939e-17;0;4.351541e-17;3.920946e-18;-1.110223e-16;-3.959447e-17;-2.913136;-1.110223e-16;1.110223e-16;0
-23.116307;-9.432071;-2.147227;0;0;0;0;0;2.220446e-16;-1.980744e-18;0;0;0;0;2.220623e-16;-1.766777e-20;1.1104e-16;45;0;1.480533e-16;1.480474e-16;0;0;-3.961487e-18;2.220446e-16;-3.961487e-18;-2.160947;2.220446e-16;-2.220446e-16;0
-21.503321;-9.432071;-1.432814;0;0;0;0;0;-1.110223e-16;2.000973e-18;0;0;0;0;3.605215e-20;-1.110584e-16;5.55472e-17;45;0;7.406294e-17;7.405092e-17;0;0;4.001946e-18;-1.110223e-16;4.001946e-18;-1.455449;-1.110223e-16;1.110223e-16;0
-19.890335;-9.432071;-0.770983;0;0;0;0;-1.110223e-16;2.220446e-16;-2.030368e-18;0;0;0;0;2.22057e-16;-1.110347e-16;1.665458e-16;45;0;2.220611e-16;1.95839e-16;-1.110223e-16;-1.135156e-21;-4.0596e-18;2.220446e-16;-4.058464e-18;-0.806482;1.110223e-16;-1.110223e-16;0
-18.277349;-9.432071;-0.191605;0;0;0;0;0;-1.110223e-16;-9.839433e-18;0;0;0;0;8.652833e-19;-1.118876e-16;5.637644e-17;45;0;7.516858e-17;7.488182e-17;0;-2.173913e-17;2.060264e-18;-1.110223e-16;2.37994e-17;-0.224639;-1.110223e-16;1.110223e-16;0
-16.664363;-9.432071;0.317278;0;0;0;0;2.220446e-16;-1.110223e-16;1.054776e-17;0;0;0;0;2.223783e-16;-1.11356e-16;1.668672e-16;45;0;2.224895e-16;1.962033e-16;2.220446e-16;1.901685e-17;2.07867e-18;-1.110223e-16;-1.693818e-17;0.298155;1.110223e-16;-1.110223e-16;0
-15.051377;-9.432071;0.798488;0;0;0;0;-1.110223e-16;0;1.358018e-18;0;0;0;0;1.660871e-20;-1.110389e-16;5.552776e-17;45;0;7.403701e-17;7.403148e-17;-1.110223e-16;2.716036e-18;0;0;-2.716036e-18;0.778609;-1.110223e-16;1.110223e-16;0
-13.438391;-9.432071;1.247914;0;0;0;0;-1.110223e-16;-1.110223e-16;-8.449128e-18;0;0;0;0;-1.025732e-16;-1.194714e-16;8.449128e-18;45;0;1.12655e-17;7.46551e-17;-1.110223e-16;-1.900887e-17;2.110608e-18;-1.110223e-16;2.111947e-17;1.205862;-2.220446e-16;2.220446e-16;0
-11.825405;-9.432071;1.593194;0;0;0;0;0;-1.110223e-16;-9.787026e-18;0;0;0;0;8.561602e-19;-1.118785e-16;5.636731e-17;45;0;7.515641e-17;7.487266e-17;0;-2.170569e-17;2.131638e-18;-1.110223e-16;2.383733e-17;1.573959;-1.110223e-16;1.110223e-16;0
-10.212419;-9.432071;1.892471;0;0;0;0;0;0;1.084943e-17;0;0;0;0;1.084943e-17;-1.084943e-17;1.084943e-17;45;0;1.446591e-17;1.252785e-17;0;2.169887e-17;0;0;-2.169887e-17;1.9058;0;0;0
-8.599433;-9.432071;2.234945;0;0;0;0;0;-1.110223e-16;1.063806e-18;0;0;0;0;1.019236e-20;-1.110325e-16;5.552134e-17;45;0;7.402846e-17;7.402506e-17;0;-7.255051e-25;2.127612e-18;-1.110223e-16;2.127613e-18;2.233844;-1.110223e-16;1.110223e-16;0
-6.986447;-9.432071;2.573358;0;0;0;0;0;0;1.085147e-17;0;0;0;0;1.085147e-17;-1.085147e-17;1.085147e-17;45;0;1.446863e-17;1.25302e-17;0;2.170295e-17;0;0;-2.170295e-17;2.552356;0;0;0
-5.373461;-9.432071;2.850041;0;0;0;0;0;0;-6.780939e-19;0;0;0;0;6.780939e-19;-6.780939e-19;6.780939e-19;45;0;9.041252e-19;7.829954e-19;0;-1.356188e-18;0;0;1.356188e-18;2.813612;0;0;0
-3.760475;-9.432071;3.018809;0;0;0;0;0;0;-3.3909e-19;0;0;0;0;3.3909e-19;-3.3909e-19;3.3909e-19;45;0;4.5212e-19;3.915474e-19;0;-6.7818e-19;0;0;6.7818e-19;2.992657;0;0;0
-2.147489;-9.432071;3.104456;0;0;0;0;0;2.220446e-16;2.144451e-17;0;0;0;0;2.240967e-16;-2.052091e-18;1.130744e-16;45;0;1.507659e-16;1.500865e-16;0;4.343213e-17;-5.43119e-19;2.220446e-16;-4.397525e-17;3.099255;2.220446e-16;-2.220446e-16;0
-0.534503;-9.432071;3.159572;0;0;0;0;-1.110223e-16;0;3.39495e-19;0;0;0;0;1.038132e-21;-1.110233e-16;5.551219e-17;45;0;7.401625e-17;7.401591e-17;-1.110223e-16;6.7899e-19;0;0;-6.7899e-19;3.173308;-1.110223e-16;1.110223e-16;0
1.078483;-9.432071;3.235822;0;0;0;0;-1.110223e-16;0;1.1036e-17;0;0;0;0;1.086386e-18;-1.121087e-16;5.659754e-17;45;0;7.546338e-17;7.510388e-17;-1.110223e-16;2.2072e-17;0;0;-2.2072e-17;3.240858;-1.110223e-16;1.110223e-16;0
2.691469;-9.432071;3.313224;0;0;0;0;0;0;-1.086464e-17;0;0;0;0;1.086464e-17;-1.086464e-17;1.086464e-17;45;0;1.448618e-17;1.25454e-17;0;-2.172928e-17;0;0;2.172928e-17;3.291749;0;0;0
4.304455;-9.432071;3.324202;0;0;0;0;-1.110223e-16;0;1.069323e-17;0;0;0;0;1.020548e-18;-1.120428e-16;5.65317e-17;45;0;7.53756e-17;7.503773e-17;-1.110223e-16;2.138645e-17;0;0;-2.138645e-17;3.293993;-1.110223e-16;1.110223e-16;0
5.917441;-9.432071;3.253108;0;0;0;0;-1.110223e-16;0;1.052338e-17;0;0;0;0;9.886659e-19;-1.12011e-16;5.649982e-17;45;0;7.533309e-17;7.500571e-17;-1.110223e-16;2.104675e-17;0;0;-2.104675e-17;3.231775;-1.110223e-16;1.110223e-16;0
7.530427;-9.432071;3.133084;0;0;0;0;2.220446e-16;0;3.39388e-19;0;0;0;0;2.220451e-16;-5.187424e-22;1.110228e-16;45;0;1.480304e-16;1.480303e-16;2.220446e-16;6.78776e-19;0;0;-6.78776e-19;3.113263;2.220446e-16;-2.220446e-16;0
9.143413;-9.432071;2.970856;0;0;0;0;0;-1.110223e-16;-5.402353e-19;0;0;0;0;2.628727e-21;-1.110249e-16;5.551378e-17;45;0;7.401837e-17;7.40175e-17;0;0;-1.080471e-18;-1.110223e-16;-1.080471e-18;2.951581;-1.110223e-16;1.110223e-16;0
10.756399;-9.432071;2.767787;0;0;0;0;-1.110223e-16;0;1.018519e-17;0;0;0;0;9.266547e-19;-1.11949e-16;5.643781e-17;45;0;7.525041e-17;7.494343e-17;-1.110223e-16;2.037037e-17;0;0;-2.037037e-17;2.753023;-1.110223e-16;1.110223e-16;0
12.369385;-9.432071;2.536519;0;0;0;0;0;2.220446e-16;1.193948e-17;0;0;0;0;2.226848e-16;-6.401484e-19;1.116624e-16;45;0;1.488833e-16;1.486703e-16;0;2.173034e-17;2.148627e-18;2.220446e-16;-1.958171e-17;2.517625;2.220446e-16;-2.220446e-16;0
13.982371;-9.432071;2.266456;0;0;0;0;-1.110223e-16;-1.110223e-16;-1.748513e-18;0;0;0;0;-1.092738e-16;-1.127708e-16;1.748513e-18;45;0;2.33135e-18;7.40424e-17;-1.110223e-16;-1.358469e-18;-2.138557e-18;-1.110223e-16;-7.800879e-19;2.241726;-2.220446e-16;2.220446e-16;0
15.595357;-9.432071;1.943988;0;0;0;0;2.220446e-16;-1.110223e-16;1.116692e-17;0;0;0;0;2.224186e-16;-1.113963e-16;1.669074e-16;45;0;2.225432e-16;1.96249e-16;2.220446e-16;2.445819e-17;-2.124349e-18;-1.110223e-16;-2.658254e-17;1.916024;1.110223e-16;-1.110223e-16;0
17.208343;-9.432071;1.560942;0;0;0;0;0;0;0;0;0;0;0;0;0;0;45;0;0;0;0;0;0;0;0;1.536715;0;0;0
18.821329;-9.432071;1.126642;0;0;0;0;0;0;-1.086913e-17;0;0;0;0;1.086913e-17;-1.086913e-17;1.086913e-17;45;0;1.449218e-17;1.25506e-17;0;-2.173827e-17;0;0;2.173827e-17;1.106005;0;0;0
20.434315;-9.432071;0.647917;0;0;0;0;0;0;-1.086514e-17;0;0;0;0;1.086514e-17;-1.086514e-17;1.086514e-17;45;0;1.448686e-17;1.254599e-17;0;-2.173029e-17;0;0;2.173029e-17;0.629433;0;0;0
22.047301;-9.432071;0.128551;0;0;0;0;0;-1.110223e-16;-1.29216e-17;0;0;0;0;1.484073e-18;-1.125064e-16;5.699523e-17;45;0;7.599363e-17;7.55038e-17;0;-2.172388e-17;-4.119311e-18;-1.110223e-16;1.760457e-17;0.106695;-1.110223e-16;1.110223e-16;0
23.660287;-9.432071;-0.443221;0;0;0;0;0;2.220446e-16;-1.96853e-17;0;0;0;0;2.237763e-16;-1.731689e-18;1.12754e-16;45;0;1.503387e-16;1.497648e-16;0;-4.344744e-17;4.076843e-18;2.220446e-16;4.752428e-17;-0.465011;2.220446e-16;-2.220446e-16;0
25.273273;-9.432071;-1.068642;0;0;0;0;-1.110223e-16;0;-2.715793e-18;0;0;0;0;6.639316e-20;-1.110887e-16;5.557754e-17;45;0;7.410339e-17;7.408127e-17;-1.110223e-16;-5.431586e-18;0;0;5.431586e-18;-1.089464;-1.110223e-16;1.110223e-16;0
26.886259;-9.432071;-1.746873;0;0;0;0;2.220446e-16;0;1.358338e-17;0;0;0;0;2.228725e-16;-8.278642e-19;1.118502e-16;45;0;1.491336e-16;1.488584e-16;2.220446e-16;2.716676e-17;0;0;-2.716676e-17;-1.766164;2.220446e-16;-2.220446e-16;0
28.499246;-9.432071;-2.475426;0;0;0;0;0;0;-1.087015e-17;0;0;0;0;1.087015e-17;-1.087015e-17;1.087015e-17;45;0;1.449354e-17;1.255177e-17;0;-2.174031e-17;0;0;2.174031e-17;-2.495839;0;0;0
30.112232;-9.432071;-3.259299;0;0;0;0;-1.110223e-16;0;8.155237e-18;0;0;0;0;5.958518e-19;-1.116182e-16;5.610701e-17;45;0;7.480933e-17;7.461151e-17;-1.110223e-16;1.631047e-17;0;0;-1.631047e-17;-3.279705;-1.110223e-16;1.110223e-16;0
31.725218;-9.432071;-4.099167;0;0;0;0;2.220446e-16;0;2.718639e-18;0;0;0;0;2.220779e-16;-3.328111e-20;1.110556e-16;45;0;1.480741e-16;1.48063e-16;2.220446e-16;5.437278e-18;0;0;-5.437278e-18;-4.128283;2.220446e-16;-2.220446e-16;0
33.338204;-9.432071;-5.021088;0;0;0;0;-1.110223e-16;2.220446e-16;1.191646e-17;0;0;0;0;2.224704e-16;-1.114481e-16;1.669593e-16;45;0;2.226123e-16;1.963078e-16;-1.110223e-16;1.631585e-17;7.51706e-18;2.220446e-16;-8.798792e-18;-5.033522;1.110223e-16;-1.110223e-16;0
34.95119;-9.432071;-5.973829;0;0;0;0;-2.220446e-16;0;-4.814259e-18;0;0;0;0;1.043313e-19;-2.221489e-16;1.111266e-16;45;0;1.481688e-16;1.481341e-16;-2.220446e-16;-9.628519e-18;0;0;9.628519e-18;-5.976625;-2.220446e-16;2.220446e-16;0
-44.085126;-11.045057;-17.756662;0;0;0;0;-2.220446e-16;0;4.064559e-17;0;0;0;0;7.206358e-18;-2.292509e-16;1.182287e-16;45;0;1.576382e-16;1.552918e-16;-2.220446e-16;8.129119e-17;0;0;-8.129119e-17;-17.753244;-2.220446e-16;2.220446e-16;0
-42.47214;-11.045057;-15.991253;0;0;0;0;-2.220446e-16;0;2.61077e-17;0;0;0;0;3.028405e-18;-2.25073e-16;1.140507e-16;45;0;1.520676e-16;1.510683e-16;-2.220446e-16;5.221541e-17;0;0;-5.221541e-17;-16.023775;-2.220446e-16;2.220446e-16;0
-40.859154;-11.045057;-14.335537;0;0;0;0;2.220446e-16;0;-5.446146e-18;0;0;0;0;2.221781e-16;-1.334988e-19;1.111558e-16;45;0;1.482077e-16;1.481633e-16;2.220446e-16;-1.089229e-17;0;0;1.089229e-17;-14.380143;2.220446e-16;-2.220446e-16;0
-39.246168;-11.045057;-12.807096;0;0;0;0;2.220446e-16;2.220446e-16;2.242408e-18;0;0;0;0;2.24287e-16;2.198022e-16;2.242408e-18;45;0;2.989878e-18;1.480524e-16;2.220446e-16;1.089537e-17;-6.410551e-18;2.220446e-16;-1.730592e-17;-12.843612;4.440892e-16;-4.440892e-16;0
-37.633182;-11.045057;-11.379378;0;0;0;0;0;0;0;0;0;0;0;0;0;0;45;0;0;0;0;0;0;0;0;-11.417062;0;0;0
-36.020196;-11.045057;-10.056538;0;0;0;0;0;0;-3.267127e-17;0;0;0;0;3.267127e-17;-3.267127e-17;3.267127e-17;45;0;4.356169e-17;3.772553e-17;0;-6.534254e-17;0;0;6.534254e-17;-10.08518;0;0;0
-34.40721;-11.045057;-8.817377;0;0;0;0;2.220446e-16;-1.110223e-16;9.909865e-18;0;0;0;0;2.223392e-16;-1.113169e-16;1.66828e-16;45;0;2.224374e-16;1.96159e-16;2.220446e-16;1.633409e-17;3.485641e-18;-1.110223e-16;-1.284845e-17;-8.841729;1.110223e-16;-1.110223e-16;0
-32.794224;-11.045057;-7.653994;0;0;0;0;2.220446e-16;-1.110223e-16;-1.181983e-17;0;0;0;0;2.224635e-16;-1.114412e-16;1.669524e-16;45;0;2.226032e-16;1.963e-16;2.220446e-16;-2.721741e-17;3.577743e-18;-1.110223e-16;3.079516e-17;-7.68573;1.110223e-16;-1.110223e-16;0
-31.181238;-11.045057;-6.590237;0;0;0;0;-1.110223e-16;0;-8.162833e-18;0;0;0;0;5.969566e-19;-1.116193e-16;5.610811e-17;45;0;7.481081e-17;7.461262e-17;-1.110223e-16;-1.632567e-17;0;0;1.632567e-17;-6.610893;-1.110223e-16;1.110223e-16;0
-29.568251;-11.045057;-5.587503;0;0;0;0;0;2.220446e-16;-1.274358e-17;0;0;0;0;2.227736e-16;-7.289865e-19;1.117513e-16;45;0;1.490017e-16;1.487593e-16;0;-2.175924e-17;-3.727925e-18;2.220446e-16;1.803132e-17;-5.612459;2.220446e-16;-2.220446e-16;0
-27.955265;-11.045057;-4.649302;0;0;0;0;-1.110223e-16;-1.110223e-16;1.549474e-17;0;0;0;0;-9.552757e-17;-1.26517e-16;1.549474e-17;45;0;2.065965e-17;7.614668e-17;-1.110223e-16;2.719016e-17;3.799312e-18;-1.110223e-16;-2.339085e-17;-4.682245;-2.220446e-16;2.220446e-16;0
-26.342279;-11.045057;-3.79031;0;0;0;0;0;0;-2.174684e-17;0;0;0;0;2.174684e-17;-2.174684e-17;2.174684e-17;45;0;2.899579e-17;2.511109e-17;0;-4.349369e-17;0;0;4.349369e-17;-3.819658;0;0;0
-24.729293;-11.045057;-2.99483;0;0;0;0;0;-1.110223e-16;2.370263e-17;0;0;0;0;4.848623e-18;-1.158709e-16;6.035977e-17;45;0;8.04797e-17;7.891316e-17;0;4.348308e-17;3.92217e-18;-1.110223e-16;-3.956091e-17;-3.019306;-1.110223e-16;1.110223e-16;0
-23.116307;-11.045057;-2.24788;0;0;0;0;-1.110223e-16;0;2.716886e-18;0;0;0;0;6.644658e-20;-1.110888e-16;5.55776e-17;45;0;7.410346e-17;7.408132e-17;-1.110223e-16;5.433771e-18;0;0;-5.433771e-18;-2.267454;-1.110223e-16;1.110223e-16;0
-21.503321;-11.045057;-1.53705;0;0;0;0;-1.110223e-16;-1.110223e-16;-6.148371e-18;0;0;0;0;-1.048739e-16;-1.171707e-16;6.148371e-18;45;0;8.197827e-18;7.435458e-17;-1.110223e-16;-1.629999e-17;4.003253e-18;-1.110223e-16;2.030325e-17;-1.56197;-2.220446e-16;2.220446e-16;0
-19.890335;-11.045057;-0.883375;0;0;0;0;2.220446e-16;2.220446e-16;-1.289183e-17;0;0;0;0;2.349364e-16;2.091528e-16;1.289183e-17;45;0;1.71891e-17;1.487763e-16;2.220446e-16;-2.17211e-17;-4.062556e-18;2.220446e-16;1.765854e-17;-0.91402;4.440892e-16;-4.440892e-16;0
-18.277349;-11.045057;-0.309357;0;0;0;0;0;-1.110223e-16;2.061288e-18;0;0;0;0;3.825758e-20;-1.110606e-16;5.554941e-17;45;0;7.406588e-17;7.405313e-17;0;0;4.122576e-18;-1.110223e-16;4.122576e-18;-0.334327;-1.110223e-16;1.110223e-16;0
-16.664363;-11.045057;0.19608;0;0;0;0;2.220446e-16;0;-1.221194e-17;0;0;0;0;2.227142e-16;-6.696091e-19;1.116919e-16;45;0;1.489226e-16;1.486998e-16;2.220446e-16;-2.442388e-17;0;0;2.442388e-17;0.188698;2.220446e-16;-2.220446e-16;0
-15.051377;-11.045057;0.679013;0;0;0;0;2.220446e-16;-1.110223e-16;1.054438e-17;0;0;0;0;2.223781e-16;-1.113558e-16;1.668669e-16;45;0;2.224892e-16;1.962031e-16;2.220446e-16;1.900051e-17;2.088251e-18;-1.110223e-16;-1.691226e-17;0.670201;1.110223e-16;-1.110223e-16;0
-13.438391;-11.045057;1.128821;0;0;0;0;-1.110223e-16;-1.110223e-16;2.412586e-18;0;0;0;0;-1.086097e-16;-1.134349e-16;2.412586e-18;45;0;3.216781e-18;7.406727e-17;-1.110223e-16;2.713507e-18;2.111664e-18;-1.110223e-16;-6.018432e-19;1.096452;-2.220446e-16;2.220446e-16;0
-11.825405;-11.045057;1.469355;0;0;0;0;0;2.220446e-16;-1.066196e-18;0;0;0;0;2.220497e-16;-5.119452e-21;1.110274e-16;45;0;1.480366e-16;1.480348e-16;0;0;-2.132391e-18;2.220446e-16;-2.132391e-18;1.461961;2.220446e-16;-2.220446e-16;0
-10.212419;-11.045057;1.770468;0;0;0;0;0;0;2.171573e-17;0;0;0;0;2.171573e-17;-2.171573e-17;2.171573e-17;45;0;2.89543e-17;2.507516e-17;0;4.343145e-17;0;0;-4.343145e-17;1.792405;0;0;0
-8.599433;-11.045057;2.117912;0;0;0;0;0;0;0;0;0;0;0;0;0;0;45;0;0;0;0;0;0;0;0;2.120853;0;0;0
-6.986447;-11.045057;2.45644;0;0;0;0;2.220446e-16;0;-1.221345e-17;0;0;0;0;2.227144e-16;-6.697738e-19;1.116921e-16;45;0;1.489228e-16;1.487e-16;2.220446e-16;-2.442689e-17;0;0;2.442689e-17;2.438746;2.220446e-16;-2.220446e-16;0
-5.373461;-11.045057;2.728976;0;0;0;0;2.220446e-16;0;1.017422e-17;0;0;0;0;2.225098e-16;-4.652139e-19;1.114875e-16;45;0;1.4865e-16;1.484952e-16;2.220446e-16;2.034843e-17;0;0;-2.034843e-17;2.698908;2.220446e-16;-2.220446e-16;0
-3.760475;-11.045057;2.902301;0;0;0;0;0;2.220446e-16;1.031356e-17;0;0;0;0;2.225226e-16;-4.780162e-19;1.115003e-16;45;0;1.486671e-16;1.48508e-16;0;2.171048e-17;-1.083372e-18;2.220446e-16;-2.279386e-17;2.88134;2.220446e-16;-2.220446e-16;0
-2.147489;-11.045057;3.007665;0;0;0;0;2.220446e-16;0;-3.394911e-19;0;0;0;0;2.220451e-16;-5.190575e-22;1.110228e-16;45;0;1.480304e-16;1.480303e-16;2.220446e-16;-6.789822e-19;0;0;6.789822e-19;2.994359;2.220446e-16;-2.220446e-16;0
-0.534503;-11.045057;3.074734;0;0;0;0;0;0;-1.086877e-17;0;0;0;0;1.086877e-17;-1.086877e-17;1.086877e-17;45;0;1.449169e-17;1.255017e-17;0;-2.173753e-17;0;0;2.173753e-17;3.073238;0;0;0
1.078483;-11.045057;3.148412;0;0;0;0;2.220446e-16;2.220446e-16;1.042276e-17;0;0;0;0;2.324674e-16;2.116219e-16;1.042276e-17;45;0;1.389701e-17;1.485182e-16;2.220446e-16;2.138871e-17;-5.431933e-19;2.220446e-16;-2.19319e-17;3.139395;4.440892e-16;-4.440892e-16;0
2.691469;-11.045057;3.21434;0;0;0;0;0;2.220446e-16;2.157365e-17;0;0;0;0;2.241213e-16;-2.076655e-18;1.13099e-16;45;0;1.507986e-16;1.501112e-16;0;4.341908e-17;-2.717764e-19;2.220446e-16;-4.369086e-17;3.185816;2.220446e-16;-2.220446e-16;0
4.304455;-11.045057;3.217971;0;0;0;0;-1.110223e-16;0;-8.47072e-20;0;0;0;0;6.462942e-23;-1.110224e-16;5.551122e-17;45;0;7.401496e-17;7.401493e-17;-1.110223e-16;-1.694144e-19;0;0;1.694144e-19;3.184869;-1.110223e-16;1.110223e-16;0
5.917441;-11.045057;3.143777;0;0;0;0;2.220446e-16;2.220446e-16;8.816748e-19;0;0;0;0;2.229263e-16;2.211629e-16;8.816748e-19;45;0;1.175566e-18;1.480332e-16;2.220446e-16;6.779182e-19;1.085431e-18;2.220446e-16;4.07513e-19;3.122958;4.440892e-16;-4.440892e-16;0
7.530427;-11.045057;3.02349;0;0;0;0;0;2.220446e-16;5.416256e-19;0;0;0;0;2.220459e-16;-1.32116e-21;1.110236e-16;45;0;1.480315e-16;1.480311e-16;0;0;1.083251e-18;2.220446e-16;1.083251e-18;3.005734;2.220446e-16;-2.220446e-16;0
9.143413;-11.045057;2.861776;0;0;0;0;0;0;0;0;0;0;0;0;0;0;45;0;0;0;0;0;0;0;0;2.845009;0;0;0
10.756399;-11.045057;2.659521;0;0;0;0;2.220446e-16;0;6.783281e-19;0;0;0;0;2.220467e-16;-2.072217e-21;1.110244e-16;45;0;1.480325e-16;1.480318e-16;2.220446e-16;1.356656e-18;0;0;-1.356656e-18;2.646165;2.220446e-16;-2.220446e-16;0
12.369385;-11.045057;2.427175;0;0;0;0;0;2.220446e-16;1.192716e-17;0;0;0;0;2.226834e-16;-6.388309e-19;1.116611e-16;45;0;1.488815e-16;1.48669e-16;0;2.170571e-17;2.148601e-18;2.220446e-16;-1.955711e-17;2.410801;2.220446e-16;-2.220446e-16;0
13.982371;-11.045057;2.157128;0;0;0;0;0;-1.110223e-16;-1.069414e-18;0;0;0;0;1.03001e-20;-1.110326e-16;5.552145e-17;45;0;7.40286e-17;7.402517e-17;0;0;-2.138829e-18;-1.110223e-16;-2.138829e-18;2.135738;-1.110223e-16;1.110223e-16;0
15.595357;-11.045057;1.836393;0;0;0;0;0;0;1.08547e-17;0;0;0;0;1.08547e-17;-1.08547e-17;1.08547e-17;45;0;1.447293e-17;1.253392e-17;0;2.170939e-17;0;0;-2.170939e-17;1.81123;0;0;0
17.208343;-11.045057;1.455417;0;0;0;0;2.220446e-16;-1.110223e-16;-1.055411e-17;0;0;0;0;2.223787e-16;-1.113564e-16;1.668676e-16;45;0;2.224901e-16;1.962038e-16;2.220446e-16;-1.90004e-17;-2.107822e-18;-1.110223e-16;1.689258e-17;1.431801;1.110223e-16;-1.110223e-16;0
18.821329;-11.045057;1.018468;0;0;0;0;0;-1.110223e-16;9.812571e-18;0;0;0;0;8.606012e-19;-1.118829e-16;5.637175e-17;45;0;7.516234e-17;7.487712e-17;0;2.171613e-17;-2.090992e-18;-1.110223e-16;-2.380713e-17;0.998543;-1.110223e-16;1.110223e-16;0
20.434315;-11.045057;0.533426;0;0;0;0;-1.110223e-16;0;-2.714256e-18;0;0;0;0;6.631808e-20;-1.110886e-16;5.557747e-17;45;0;7.410329e-17;7.40812e-17;-1.110223e-16;-5.428512e-18;0;0;5.428512e-18;0.517388;-1.110223e-16;1.110223e-16;0
22.047301;-11.045057;0.007211;0;0;0;0;0;0;-1.08558e-17;0;0;0;0;1.08558e-17;-1.08558e-17;1.08558e-17;45;0;1.447441e-17;1.25352e-17;0;-2.171161e-17;0;0;2.171161e-17;-0.009399;0;0;0
23.660287;-11.045057;-0.565917;0;0;0;0;2.220446e-16;0;2.442843e-17;0;0;0;0;2.247003e-16;-2.65575e-18;1.136781e-16;45;0;1.515707e-16;1.506933e-16;2.220446e-16;4.885685e-17;0;0;-4.885685e-17;-0.582831;2.220446e-16;-2.220446e-16;0
25.273273;-11.045057;-1.189511;0;0;0;0;-1.110223e-16;0;-2.172165e-17;0;0;0;0;4.098561e-18;-1.151209e-16;5.960971e-17;45;0;7.947962e-17;7.814926e-17;-1.110223e-16;-4.344329e-17;0;0;4.344329e-17;-1.206081;-1.110223e-16;1.110223e-16;0
26.886259;-11.045057;-1.864412;0;0;0;0;0;2.220446e-16;1.994071e-18;0;0;0;0;2.220625e-16;-1.790631e-20;1.110402e-16;45;0;1.480536e-16;1.480476e-16;0;0;3.988143e-18;2.220446e-16;3.988143e-18;-1.880672;2.220446e-16;-2.220446e-16;0
28.499246;-11.045057;-2.590076;0;0;0;0;2.220446e-16;2.220446e-16;-6.182364e-18;0;0;0;0;2.28227e-16;2.158622e-16;6.182364e-18;45;0;8.243153e-18;1.482018e-16;2.220446e-16;-1.630325e-17;3.938523e-18;2.220446e-16;2.024177e-17;-2.608427;4.440892e-16;-4.440892e-16;0
30.112232;-11.045057;-3.371163;0;0;0;0;0;-1.110223e-16;8.928521e-18;0;0;0;0;7.134555e-19;-1.117358e-16;5.62246e-17;45;0;7.496614e-17;7.472946e-17;0;2.174142e-17;-3.884376e-18;-1.110223e-16;-2.562579e-17;-3.391474;-1.110223e-16;1.110223e-16;0
31.725218;-11.045057;-4.20971;0;0;0;0;2.220446e-16;2.220446e-16;6.532464e-18;0;0;0;0;2.285771e-16;2.155121e-16;6.532464e-18;45;0;8.709952e-18;1.482218e-16;2.220446e-16;5.434647e-18;7.630281e-18;2.220446e-16;2.195633e-18;-4.239872;4.440892e-16;-4.440892e-16;0
33.338204;-11.045057;-5.132206;0;0;0;0;0;0;-1.049983e-22;0;0;0;0;1.049983e-22;-1.049983e-22;1.049983e-22;45;0;1.399977e-22;1.212416e-22;0;-2.099966e-22;0;0;2.099966e-22;-5.147525;0;0;0
34.95119;-11.045057;-6.092349;0;0;0;0;0;0;1.404789e-17;0;0;0;0;1.404789e-17;-1.404789e-17;1.404789e-17;45;0;1.873052e-17;1.62211e-17;0;2.809578e-17;0;0;-2.809578e-17;-6.095214;0;0;0
-44.085126;-12.658043;-17.851762;0;0;0;0;2.220446e-16;-1.110223e-16;-1.681253e-17;0;0;0;0;2.228911e-16;-1.118688e-16;1.6738e-16;45;0;2.231733e-16;1.967849e-16;2.220446e-16;-3.778383e-17;4.158767e-18;-1.110223e-16;4.19426e-17;-17.851994;1.110223e-16;-1.110223e-16;0
-42.47214;-12.658043;-16.09577;0;0;0;0;-2.220446e-16;2.220446e-16;2.42519e-17;0;0;0;0;2.233651e-16;-2.233651e-16;2.233651e-16;45;0;2.978201e-16;2.579198e-16;-2.220446e-16;5.447582e-17;-5.972024e-18;2.220446e-16;-6.044784e-17;-16.129101;0;0;0
-40.859154;-12.658043;-14.440558;0;0;0;0;0;0;3.268137e-17;0;0;0;0;3.268137e-17;-3.268137e-17;3.268137e-17;45;0;4.357517e-17;3.77372e-17;0;6.536275e-17;0;0;-6.536275e-17;-14.481709;0;0;0
-39.246168;-12.658043;-12.908808;0;0;0;0;-2.220446e-16;-1.110223e-16;7.047234e-18;0;0;0;0;-1.105768e-16;-2.224901e-16;5.595669e-17;45;0;7.460893e-17;1.284555e-16;-2.220446e-16;1.089147e-17;3.202997e-18;-1.110223e-16;-7.688475e-18;-12.942678;-3.330669e-16;3.330669e-16;0
-37.633182;-12.658043;-11.480287;0;0;0;0;0;0;1.089107e-17;0;0;0;0;1.089107e-17;-1.089107e-17;1.089107e-17;45;0;1.452142e-17;1.257592e-17;0;2.178213e-17;0;0;-2.178213e-17;-11.515265;0;0;0
-36.020196;-12.658043;-10.1566;0;0;0;0;2.220446e-16;0;1.905785e-17;0;0;0;0;2.236684e-16;-1.62384e-18;1.126461e-16;45;0;1.501948e-16;1.496565e-16;2.220446e-16;3.811571e-17;0;0;-3.811571e-17;-10.182286;2.220446e-16;-2.220446e-16;0
-34.40721;-12.658043;-8.908738;0;0;0;0;2.220446e-16;0;8.167329e-18;0;0;0;0;2.223446e-16;-3.000084e-19;1.113223e-16;45;0;1.484298e-16;1.483298e-16;2.220446e-16;1.633466e-17;0;0;-1.633466e-17;-8.939575;2.220446e-16;-2.220446e-16;0
-32.794224;-12.658043;-7.748642;0;0;0;0;0;2.220446e-16;-1.791034e-18;0;0;0;0;2.220591e-16;-1.444572e-20;1.110367e-16;45;0;1.48049e-16;1.480442e-16;0;0;-3.582068e-18;2.220446e-16;-3.582068e-18;-7.7851;2.220446e-16;-2.220446e-16;0
-31.181238;-12.658043;-6.689843;0;0;0;0;-1.110223e-16;-1.110223e-16;-6.326258e-18;0;0;0;0;-1.04696e-16;-1.173486e-16;6.326258e-18;45;0;8.435011e-18;7.437448e-17;-1.110223e-16;-1.632261e-17;3.670091e-18;-1.110223e-16;1.99927e-17;-6.715917;-2.220446e-16;2.220446e-16;0
-29.568251;-12.658043;-5.700361;0;0;0;0;0;0;-1.087491e-17;0;0;0;0;1.087491e-17;-1.087491e-17;1.087491e-17;45;0;1.449988e-17;1.255727e-17;0;-2.174982e-17;0;0;2.174982e-17;-5.722445;0;0;0
-27.955265;-12.658043;-4.7706;0;0;0;0;-1.110223e-16;2.220446e-16;-1.467077e-17;0;0;0;0;2.226896e-16;-1.116673e-16;1.671784e-16;45;0;2.229046e-16;1.965563e-16;-1.110223e-16;-2.174072e-17;-7.600829e-18;2.220446e-16;1.413989e-17;-4.794885;1.110223e-16;-1.110223e-16;0
-26.342279;-12.658043;-3.912168;0;0;0;0;2.220446e-16;0;-2.716842e-18;0;0;0;0;2.220779e-16;-3.323713e-20;1.110555e-16;45;0;1.480741e-16;1.48063e-16;2.220446e-16;-5.433684e-18;0;0;5.433684e-18;-3.932932;2.220446e-16;-2.220446e-16;0
-24.729293;-12.658043;-3.120401;0;0;0;0;2.220446e-16;2.220446e-16;-1.282661e-17;0;0;0;0;2.348712e-16;2.09218e-16;1.282661e-17;45;0;1.710214e-17;1.487688e-16;2.220446e-16;-2.173063e-17;-3.922586e-18;2.220446e-16;1.780804e-17;-3.131991;4.440892e-16;-4.440892e-16;0
-23.116307;-12.658043;-2.371481;0;0;0;0;-1.110223e-16;0;-8.148783e-18;0;0;0;0;5.949141e-19;-1.116172e-16;5.610607e-17;45;0;7.480809e-17;7.461057e-17;-1.110223e-16;-1.629757e-17;0;0;1.629757e-17;-2.380163;-1.110223e-16;1.110223e-16;0
-21.503321;-12.658043;-1.65981;0;0;0;0;0;-1.110223e-16;2.001679e-18;0;0;0;0;3.607759e-20;-1.110584e-16;5.554723e-17;45;0;7.406297e-17;7.405095e-17;0;0;4.003358e-18;-1.110223e-16;4.003358e-18;-1.674332;-1.110223e-16;1.110223e-16;0
-19.890335;-12.658043;-1.007111;0;0;0;0;2.220446e-16;-1.110223e-16;-8.831743e-18;0;0;0;0;2.222786e-16;-1.112563e-16;1.667675e-16;45;0;2.223566e-16;1.960903e-16;2.220446e-16;-2.172737e-17;4.063882e-18;-1.110223e-16;2.579125e-17;-1.027183;1.110223e-16;-1.110223e-16;0
-18.277349;-12.658043;-0.434077;0;0;0;0;2.220446e-16;0;-1.3577e-18;0;0;0;0;2.220529e-16;-8.3014e-21;1.110306e-16;45;0;1.480408e-16;1.48038e-16;2.220446e-16;-2.715401e-18;0;0;2.715401e-18;-0.447881;2.220446e-16;-2.220446e-16;0
-16.664363;-12.658043;0.074209;0;0;0;0;0;-1.110223e-16;1.037967e-18;0;0;0;0;9.703296e-21;-1.11032e-16;5.552085e-17;45;0;7.402781e-17;7.402457e-17;0;0;2.075935e-18;-1.110223e-16;2.075935e-18;0.078613;-1.110223e-16;1.110223e-16;0
-15.051377;-12.658043;0.568257;0;0;0;0;0;0;-4.348381e-17;0;0;0;0;4.348381e-17;-4.348381e-17;4.348381e-17;45;0;5.797841e-17;5.021078e-17;0;-8.696762e-17;0;0;8.696762e-17;0.563229;0;0;0
-13.438391;-12.658043;1.021752;0;0;0;0;2.220446e-16;0;-1.086805e-17;0;0;0;0;2.225753e-16;-5.306722e-19;1.11553e-16;45;0;1.487373e-16;1.485607e-16;2.220446e-16;-2.17361e-17;0;0;2.17361e-17;0.989695;2.220446e-16;-2.220446e-16;0
-11.825405;-12.658043;1.361272;0;0;0;0;0;0;-1.086446e-17;0;0;0;0;1.086446e-17;-1.086446e-17;1.086446e-17;45;0;1.448594e-17;1.25452e-17;0;-2.172892e-17;0;0;2.172892e-17;1.354045;0;0;0
-10.212419;-12.658043;1.672403;0;0;0;0;0;0;1.086676e-17;0;0;0;0;1.086676e-17;-1.086676e-17;1.086676e-17;45;0;1.448901e-17;1.254785e-17;0;2.173352e-17;0;0;-2.173352e-17;1.684777;0;0;0
-8.599433;-12.658043;2.019623;0;0;0;0;-1.110223e-16;0;1.35835e-18;0;0;0;0;1.661682e-20;-1.110389e-16;5.552777e-17;45;0;7.403703e-17;7.403149e-17;-1.110223e-16;2.7167e-18;0;0;-2.7167e-18;2.014187;-1.110223e-16;1.110223e-16;0
-6.986447;-12.658043;2.350059;0;0;0;0;2.220446e-16;-1.110223e-16;-2.886173e-19;0;0;0;0;2.220448e-16;-1.110226e-16;1.665337e-16;45;0;2.220449e-16;1.958252e-16;2.220446e-16;-2.715315e-18;2.138081e-18;-1.110223e-16;4.853396e-18;2.329369;1.110223e-16;-1.110223e-16;0
-5.373461;-12.658043;2.617359;0;0;0;0;2.220446e-16;2.220446e-16;9.100961e-18;0;0;0;0;2.311456e-16;2.129436e-16;9.100961e-18;45;0;1.213462e-17;1.484023e-16;2.220446e-16;2.035647e-17;-2.154545e-18;2.220446e-16;-2.251101e-17;2.586629;4.440892e-16;-4.440892e-16;0
-3.760475;-12.658043;2.792827;0;0;0;0;0;0;3.392121e-19;0;0;0;0;3.392121e-19;-3.392121e-19;3.392121e-19;45;0;4.522828e-19;3.916884e-19;0;6.784241e-19;0;0;-6.784241e-19;2.770696;0;0;0
-2.147489;-12.658043;2.909622;0;0;0;0;0;-1.110223e-16;1.112727e-17;0;0;0;0;1.104253e-18;-1.121266e-16;5.66154e-17;45;0;7.548721e-17;7.512183e-17;0;2.171173e-17;5.428137e-19;-1.110223e-16;-2.116891e-17;2.888242;-1.110223e-16;1.110223e-16;0
-0.534503;-12.658043;2.979247;0;0;0;0;0;2.220446e-16;1.058321e-17;0;0;0;0;2.225479e-16;-5.032816e-19;1.115256e-16;45;0;1.487008e-16;1.485333e-16;0;2.170964e-17;-5.432279e-19;2.220446e-16;-2.225287e-17;2.969362;2.220446e-16;-2.220446e-16;0
1.078483;-12.658043;3.03961;0;0;0;0;-1.110223e-16;0;3.390163e-19;0;0;0;0;1.035206e-21;-1.110233e-16;5.551218e-17;45;0;7.401625e-17;7.40159e-17;-1.110223e-16;6.780326e-19;0;0;-6.780326e-19;3.031321;-1.110223e-16;1.110223e-16;0
2.691469;-12.658043;3.089593;0;0;0;0;2.220446e-16;-1.110223e-16;-1.078951e-17;0;0;0;0;2.223938e-16;-1.113715e-16;1.668826e-16;45;0;2.225102e-16;1.962208e-16;2.220446e-16;-2.185083e-17;2.718023e-19;-1.110223e-16;2.212263e-17;3.070871;1.110223e-16;-1.110223e-16;0
4.304455;-12.658043;3.089164;0;0;0;0;0;0;-2.167555e-17;0;0;0;0;2.167555e-17;-2.167555e-17;2.167555e-17;45;0;2.890073e-17;2.502877e-17;0;-4.33511e-17;0;0;4.33511e-17;3.065441;0;0;0
5.917441;-12.658043;3.018441;0;0;0;0;2.220446e-16;-1.110223e-16;6.736273e-20;0;0;0;0;2.220446e-16;-1.110223e-16;1.665335e-16;45;0;2.220446e-16;1.95825e-16;2.220446e-16;6.775038e-19;-5.427783e-19;-1.110223e-16;-1.220282e-18;3.00397;1.110223e-16;-1.110223e-16;0
7.530427;-12.658043;2.903385;0;0;0;0;0;0;0;0;0;0;0;0;0;0;45;0;0;0;0;0;0;0;0;2.889339;0;0;0
9.143413;-12.658043;2.743687;0;0;0;0;2.220446e-16;0;1.085038e-17;0;0;0;0;2.225736e-16;-5.28952e-19;1.115512e-16;45;0;1.48735e-16;1.48559e-16;2.220446e-16;2.170076e-17;0;0;-2.170076e-17;2.731086;2.220446e-16;-2.220446e-16;0
10.756399;-12.658043;2.541492;0;0;0;0;0;-1.110223e-16;-5.387306e-19;0;0;0;0;2.614104e-21;-1.110249e-16;5.551377e-17;45;0;7.401835e-17;7.401748e-17;0;0;-1.077461e-18;-1.110223e-16;-1.077461e-18;2.532439;-1.110223e-16;1.110223e-16;0
12.369385;-12.658043;2.306668;0;0;0;0;0;0;-6.780833e-19;0;0;0;0;6.780833e-19;-6.780833e-19;6.780833e-19;45;0;9.041111e-19;7.829832e-19;0;-1.356167e-18;0;0;1.356167e-18;2.295717;0;0;0
13.982371;-12.658043;2.034458;0;0;0;0;0;0;0;0;0;0;0;0;0;0;45;0;0;0;0;0;0;0;0;2.018719;0;0;0
15.595357;-12.658043;1.712853;0;0;0;0;0;0;0;0;0;0;0;0;0;0;45;0;0;0;0;0;0;0;0;1.693621;0;0;0
17.208343;-12.658043;1.333436;0;0;0;0;0;0;0;0;0;0;0;0;0;0;45;0;0;0;0;0;0;0;0;1.314791;0;0;0
18.821329;-12.658043;0.898069;0;0;0;0;-1.110223e-16;0;-1.356606e-18;0;0;0;0;1.65742e-20;-1.110389e-16;5.552773e-17;45;0;7.403697e-17;7.403144e-17;-1.110223e-16;-2.713212e-18;0;0;2.713212e-18;0.882269;-1.110223e-16;1.110223e-16;0
20.434315;-12.658043;0.412566;0;0;0;0;2.220446e-16;0;-6.350741e-23;0;0;0;0;2.220446e-16;-1.816845e-29;1.110223e-16;45;0;1.480297e-16;1.480297e-16;2.220446e-16;-1.270148e-22;0;0;1.270148e-22;0.400094;2.220446e-16;-2.220446e-16;0
22.047301;-12.658043;-0.116357;0;0;0;0;0;-1.110223e-16;-2.057525e-18;0;0;0;0;3.811806e-20;-1.110604e-16;5.554927e-17;45;0;7.406569e-17;7.405299e-17;0;0;-4.115049e-18;-1.110223e-16;-4.115049e-18;-0.128379;-1.110223e-16;1.110223e-16;0
23.660287;-12.658043;-0.688769;0;0;0;0;0;0;1.08595e-17;0;0;0;0;1.08595e-17;-1.08595e-17;1.08595e-17;45;0;1.447933e-17;1.253947e-17;0;2.1719e-17;0;0;-2.1719e-17;-0.70255;0;0;0
25.273273;-12.658043;-1.308824;0;0;0;0;-1.110223e-16;2.220446e-16;1.016571e-17;0;0;0;0;2.223546e-16;-1.113323e-16;1.668434e-16;45;0;2.224579e-16;1.961764e-16;-1.110223e-16;1.629453e-17;4.036883e-18;2.220446e-16;-1.225764e-17;-1.323974;1.110223e-16;-1.110223e-16;0
26.886259;-12.658043;-1.97856;0;0;0;0;-1.110223e-16;0;1.499188e-22;0;0;0;0;2.024414e-28;-1.110223e-16;5.551115e-17;45;0;7.401487e-17;7.401487e-17;-1.110223e-16;2.998376e-22;0;0;-2.998376e-22;-1.996182;-1.110223e-16;1.110223e-16;0
28.499246;-12.658043;-2.70372;0;0;0;0;-1.110223e-16;-1.110223e-16;-1.555562e-17;0;0;0;0;-9.546669e-17;-1.265779e-16;1.555562e-17;45;0;2.074082e-17;7.616322e-17;-1.110223e-16;-2.717269e-17;-3.938538e-18;-1.110223e-16;2.323416e-17;-2.722406;-2.220446e-16;2.220446e-16;0
30.112232;-12.658043;-3.486308;0;0;0;0;0;0;1.086969e-17;0;0;0;0;1.086969e-17;-1.086969e-17;1.086969e-17;45;0;1.449292e-17;1.255124e-17;0;2.173938e-17;0;0;-2.173938e-17;-3.506233;0;0;0
31.725218;-12.658043;-4.328398;0;0;0;0;0;2.220446e-16;-7.057027e-18;0;0;0;0;2.222687e-16;-2.240605e-19;1.112464e-16;45;0;1.483285e-16;1.482538e-16;0;-2.174043e-17;7.626374e-18;2.220446e-16;2.93668e-17;-4.355974;2.220446e-16;-2.220446e-16;0
33.338204;-12.658043;-5.25151;0;0;0;0;0;0;1.087071e-17;0;0;0;0;1.087071e-17;-1.087071e-17;1.087071e-17;45;0;1.449428e-17;1.255241e-17;0;2.174142e-17;0;0;-2.174142e-17;-5.26725;0;0;0
34.95119;-12.658043;-6.219466;0;0;0;0;0;2.220446e-16;-6.139862e-18;0;0;0;0;2.222142e-16;-1.696467e-19;1.111919e-16;45;0;1.482559e-16;1.481994e-16;0;-2.809054e-17;1.581082e-17;2.220446e-16;4.390136e-17;-6.220099;2.220446e-16;-2.220446e-16;0
-44.085126;-14.271029;-17.947556;0;0;0;0;0;0;-2.81557e-17;0;0;0;0;2.81557e-17;-2.81557e-17;2.81557e-17;45;0;3.754094e-17;3.25114e-17;0;-5.631141e-17;0;0;5.631141e-17;-17.952598;0;0;0
-42.47214;-14.271029;-16.20267;0;0;0;0;2.220446e-16;0;-5.446741e-18;0;0;0;0;2.221781e-16;-1.335279e-19;1.111558e-16;45;0;1.482078e-16;1.481633e-16;2.220446e-16;-1.089348e-17;0;0;1.089348e-17;-16.233061;2.220446e-16;-2.220446e-16;0
-40.859154;-14.271029;-14.540141;0;0;0;0;2.220446e-16;-1.110223e-16;-1.176801e-18;0;0;0;0;2.220488e-16;-1.110265e-16;1.665376e-16;45;0;2.220501e-16;1.958296e-16;2.220446e-16;-5.44448e-18;3.090878e-18;-1.110223e-16;8.535358e-18;-14.587338;1.110223e-16;-1.110223e-16;0
-39.246168;-14.271029;-13.013546;0;0;0;0;2.220446e-16;-1.110223e-16;7.047964e-18;0;0;0;0;2.221937e-16;-1.111714e-16;1.666825e-16;45;0;2.222434e-16;1.95994e-16;2.220446e-16;1.089307e-17;3.20286e-18;-1.110223e-16;-7.690208e-18;-13.047098;1.110223e-16;-1.110223e-16;0
-37.633182;-14.271029;-11.578756;0;0;0;0;-2.220446e-16;0;-3.811338e-17;0;0;0;0;6.359898e-18;-2.284045e-16;1.173822e-16;45;0;1.565096e-16;1.544333e-16;-2.220446e-16;-7.622675e-17;0;0;7.622675e-17;-11.620755;-2.220446e-16;2.220446e-16;0
-36.020196;-14.271029;-10.256372;0;0;0;0;0;0;1.088654e-17;0;0;0;0;1.088654e-17;-1.088654e-17;1.088654e-17;45;0;1.451539e-17;1.25707e-17;0;2.177309e-17;0;0;-2.177309e-17;-10.287269;0;0;0
-34.40721;-14.271029;-9.006529;0;0;0;0;2.220446e-16;0;8.163694e-18;0;0;0;0;2.223443e-16;-2.997418e-19;1.11322e-16;45;0;1.484294e-16;1.483296e-16;2.220446e-16;1.632739e-17;0;0;-1.632739e-17;-9.045612;2.220446e-16;-2.220446e-16;0
-32.794224;-14.271029;-7.851383;0;0;0;0;0;2.220446e-16;-3.585328e-18;0;0;0;0;2.221025e-16;-5.787677e-20;1.110802e-16;45;0;1.481069e-16;1.480876e-16;0;0;-7.170656e-18;2.220446e-16;-7.170656e-18;-7.891952;2.220446e-16;-2.220446e-16;0
-31.181238;-14.271029;-6.799156;0;0;0;0;0;0;1.087738e-17;0;0;0;0;1.087738e-17;-1.087738e-17;1.087738e-17;45;0;1.450317e-17;1.256011e-17;0;2.175475e-17;0;0;-2.175475e-17;-6.826244;0;0;0
-29.568251;-14.271029;-5.822131;0;0;0;0;2.220446e-16;0;1.087565e-17;0;0;0;0;2.22576e-16;-5.31413e-19;1.115537e-16;45;0;1.487383e-16;1.485615e-16;2.220446e-16;2.17513e-17;0;0;-2.17513e-17;-5.835072;2.220446e-16;-2.220446e-16;0
-27.955265;-14.271029;-4.892869;0;0;0;0;0;-1.110223e-16;1.277493e-17;0;0;0;0;1.451e-18;-1.124733e-16;5.696215e-17;45;0;7.594953e-17;7.547052e-17;0;2.175166e-17;3.798196e-18;-1.110223e-16;-1.795346e-17;-4.907548;-1.110223e-16;1.110223e-16;0
-26.342279;-14.271029;-4.02872;0;0;0;0;-1.110223e-16;0;2.719053e-18;0;0;0;0;6.655258e-20;-1.110889e-16;5.55777e-17;45;0;7.41036e-17;7.408143e-17;-1.110223e-16;5.438106e-18;0;0;-5.438106e-18;-4.044036;-1.110223e-16;1.110223e-16;0
-24.729293;-14.271029;-3.237187;0;0;0;0;0;0;-1.087648e-17;0;0;0;0;1.087648e-17;-1.087648e-17;1.087648e-17;45;0;1.450197e-17;1.255907e-17;0;-2.175296e-17;0;0;2.175296e-17;-3.241153;0;0;0
-23.116307;-14.271029;-2.48494;0;0;0;0;0;-1.110223e-16;1.979345e-18;0;0;0;0;3.527727e-20;-1.110576e-16;5.554643e-17;45;0;7.406191e-17;7.405015e-17;0;0;3.958691e-18;-1.110223e-16;3.958691e-18;-2.488936;-1.110223e-16;1.110223e-16;0
-21.503321;-14.271029;-1.76789;0;0;0;0;0;0;1.359337e-18;0;0;0;0;1.359337e-18;-1.359337e-18;1.359337e-18;45;0;1.81245e-18;1.569627e-18;0;2.718674e-18;0;0;-2.718674e-18;-1.782663;0;0;0
-19.890335;-14.271029;-1.109451;0;0;0;0;2.220446e-16;0;8.154787e-18;0;0;0;0;2.223437e-16;-2.99089e-19;1.113214e-16;45;0;1.484285e-16;1.483289e-16;2.220446e-16;1.630957e-17;0;0;-1.630957e-17;-1.136133;2.220446e-16;-2.220446e-16;0
-18.277349;-14.271029;-0.536524;0;0;0;0;2.220446e-16;0;-1.222969e-17;0;0;0;0;2.227161e-16;-6.715509e-19;1.116939e-16;45;0;1.489251e-16;1.487018e-16;2.220446e-16;-2.445937e-17;0;0;2.445937e-17;-0.555613;2.220446e-16;-2.220446e-16;0
-16.664363;-14.271029;-0.021324;0;0;0;0;-1.110223e-16;2.220446e-16;-1.15875e-17;0;0;0;0;2.224473e-16;-1.114249e-16;1.669361e-16;45;0;2.225815e-16;1.962815e-16;-1.110223e-16;-1.903091e-17;-4.144096e-18;2.220446e-16;1.488681e-17;-0.0231;1.110223e-16;-1.110223e-16;0
-15.051377;-14.271029;0.491244;0;0;0;0;0;0;-1.087784e-17;0;0;0;0;1.087784e-17;-1.087784e-17;1.087784e-17;45;0;1.450378e-17;1.256065e-17;0;-2.175568e-17;0;0;2.175568e-17;0.464383;0;0;0
-13.438391;-14.271029;0.931008;0;0;0;0;0;0;2.173891e-17;0;0;0;0;2.173891e-17;-2.173891e-17;2.173891e-17;45;0;2.898521e-17;2.510193e-17;0;4.347781e-17;0;0;-4.347781e-17;0.88872;0;0;0
-11.825405;-14.271029;1.256532;0;0;0;0;0;-1.110223e-16;1.066195e-18;0;0;0;0;1.023819e-20;-1.110325e-16;5.552139e-17;45;0;7.402852e-17;7.402511e-17;0;0;2.132391e-18;-1.110223e-16;2.132391e-18;1.249233;-1.110223e-16;1.110223e-16;0
-10.212419;-14.271029;1.574794;0;0;0;0;0;0;0;0;0;0;0;0;0;0;45;0;0;0;0;0;0;0;0;1.580123;0;0;0
-8.599433;-14.271029;1.920638;0;0;0;0;0;0;-1.086457e-17;0;0;0;0;1.086457e-17;-1.086457e-17;1.086457e-17;45;0;1.448609e-17;1.254533e-17;0;-2.172914e-17;0;0;2.172914e-17;1.911734;0;0;0
-6.986447;-14.271029;2.245345;0;0;0;0;0;2.220446e-16;2.133521e-17;0;0;0;0;2.24076e-16;-2.031415e-18;1.130537e-16;45;0;1.507383e-16;1.500657e-16;0;4.480953e-17;-2.1391e-18;2.220446e-16;-4.694863e-17;2.224666;2.220446e-16;-2.220446e-16;0
-5.373461;-14.271029;2.507967;0;0;0;0;2.220446e-16;0;1.017993e-17;0;0;0;0;2.225103e-16;-4.657357e-19;1.11488e-16;45;0;1.486507e-16;1.484957e-16;2.220446e-16;2.035986e-17;0;0;-2.035986e-17;2.478437;2.220446e-16;-2.220446e-16;0
-3.760475;-14.271029;2.678389;0;0;0;0;2.220446e-16;0;1.051418e-17;0;0;0;0;2.225414e-16;-4.967529e-19;1.115191e-16;45;0;1.486921e-16;1.485268e-16;2.220446e-16;2.102837e-17;0;0;-2.102837e-17;2.660274;2.220446e-16;-2.220446e-16;0
-2.147489;-14.271029;2.791157;0;0;0;0;2.220446e-16;0;-3.390232e-19;0;0;0;0;2.220451e-16;-5.176278e-22;1.110228e-16;45;0;1.480304e-16;1.480303e-16;2.220446e-16;-6.780464e-19;0;0;6.780464e-19;2.777013;2.220446e-16;-2.220446e-16;0
-0.534503;-14.271029;2.858239;0;0;0;0;-1.110223e-16;0;1.101646e-17;0;0;0;0;1.082579e-18;-1.121049e-16;5.659373e-17;45;0;7.545831e-17;7.510005e-17;-1.110223e-16;2.203292e-17;0;0;-2.203292e-17;2.857034;-1.110223e-16;1.110223e-16;0
1.078483;-14.271029;2.915572;0;0;0;0;0;-1.110223e-16;1.358434e-19;0;0;0;0;1.662134e-22;-1.110225e-16;5.551132e-17;45;0;7.401509e-17;7.401504e-17;0;0;2.716867e-19;-1.110223e-16;2.716867e-19;2.916234;-1.110223e-16;1.110223e-16;0
2.691469;-14.271029;2.962142;0;0;0;0;0;0;1.084819e-17;0;0;0;0;1.084819e-17;-1.084819e-17;1.084819e-17;45;0;1.446425e-17;1.252641e-17;0;2.169637e-17;0;0;-2.169637e-17;2.952512;0;0;0
4.304455;-14.271029;2.961036;0;0;0;0;2.220446e-16;-1.110223e-16;-1.358983e-19;0;0;0;0;2.220447e-16;-1.110224e-16;1.665335e-16;45;0;2.220447e-16;1.95825e-16;2.220446e-16;-2.419164e-23;-2.717723e-19;-1.110223e-16;-2.717481e-19;2.944937;1.110223e-16;-1.110223e-16;0
5.917441;-14.271029;2.892499;0;0;0;0;0;-1.110223e-16;-2.196633e-17;0;0;0;0;4.188158e-18;-1.152105e-16;5.969931e-17;45;0;7.959908e-17;7.82404e-17;0;-4.338983e-17;-5.428333e-19;-1.110223e-16;4.284699e-17;2.884026;-1.110223e-16;1.110223e-16;0
7.530427;-14.271029;2.785967;0;0;0;0;0;2.220446e-16;2.19019e-17;0;0;0;0;2.241843e-16;-2.139726e-18;1.13162e-16;45;0;1.508827e-16;1.501745e-16;0;4.27201e-17;1.083694e-18;2.220446e-16;-4.163641e-17;2.771437;2.220446e-16;-2.220446e-16;0
9.143413;-14.271029;2.63103;0;0;0;0;0;-1.110223e-16;-5.403725e-19;0;0;0;0;2.630062e-21;-1.110249e-16;5.551378e-17;45;0;7.401838e-17;7.40175e-17;0;0;-1.080745e-18;-1.110223e-16;-1.080745e-18;2.615818;-1.110223e-16;1.110223e-16;0
10.756399;-14.271029;2.429421;0;0;0;0;0;-1.110223e-16;-5.387101e-19;0;0;0;0;2.613905e-21;-1.110249e-16;5.551377e-17;45;0;7.401835e-17;7.401748e-17;0;0;-1.07742e-18;-1.110223e-16;-1.07742e-18;2.418073;-1.110223e-16;1.110223e-16;0
12.369385;-14.271029;2.191182;0;0;0;0;0;0;-1.153334e-17;0;0;0;0;1.153334e-17;-1.153334e-17;1.153334e-17;45;0;1.537779e-17;1.331755e-17;0;-2.306668e-17;0;0;2.306668e-17;2.180389;0;0;0
13.982371;-14.271029;1.914409;0;0;0;0;0;0;2.170671e-17;0;0;0;0;2.170671e-17;-2.170671e-17;2.170671e-17;45;0;2.894228e-17;2.506475e-17;0;4.341341e-17;0;0;-4.341341e-17;1.901007;0;0;0
15.595357;-14.271029;1.5882;0;0;0;0;-1.110223e-16;-1.110223e-16;-3.497643e-17;0;0;0;0;-7.604587e-17;-1.459987e-16;3.497643e-17;45;0;4.663524e-17;8.431688e-17;-1.110223e-16;-6.782835e-17;-2.124511e-18;-1.110223e-16;6.570384e-17;1.574633;-2.220446e-16;2.220446e-16;0
17.208343;-14.271029;1.210295;0;0;0;0;0;0;-1.085497e-17;0;0;0;0;1.085497e-17;-1.085497e-17;1.085497e-17;45;0;1.44733e-17;1.253425e-17;0;-2.170995e-17;0;0;2.170995e-17;1.196542;0;0;0
18.821329;-14.271029;0.779992;0;0;0;0;-1.110223e-16;0;-1.35727e-18;0;0;0;0;1.659042e-20;-1.110389e-16;5.552774e-17;45;0;7.403699e-17;7.403146e-17;-1.110223e-16;-2.71454e-18;0;0;2.71454e-18;0.766268;-1.110223e-16;1.110223e-16;0
20.434315;-14.271029;0.298751;0;0;0;0;-1.110223e-16;0;-1.357795e-18;0;0;0;0;1.660325e-20;-1.110389e-16;5.552775e-17;45;0;7.403701e-17;7.403147e-17;-1.110223e-16;-2.715589e-18;0;0;2.715589e-18;0.284971;-1.110223e-16;1.110223e-16;0
22.047301;-14.271029;-0.231284;0;0;0;0;0;0;-1.08628e-17;0;0;0;0;1.08628e-17;-1.08628e-17;1.08628e-17;45;0;1.448373e-17;1.254328e-17;0;-2.17256e-17;0;0;2.17256e-17;-0.244365;0;0;0
23.660287;-14.271029;-0.805042;0;0;0;0;0;2.220446e-16;2.376323e-17;0;0;0;0;2.245593e-16;-2.514664e-18;1.13537e-16;45;0;1.513826e-16;1.505514e-16;0;4.344908e-17;4.077375e-18;2.220446e-16;-3.937171e-17;-0.820004;2.220446e-16;-2.220446e-16;0
25.273273;-14.271029;-1.424456;0;0;0;0;-1.110223e-16;0;-2.715569e-18;0;0;0;0;6.638221e-20;-1.110887e-16;5.557753e-17;45;0;7.410338e-17;7.408126e-17;-1.110223e-16;-5.431137e-18;0;0;5.431137e-18;-1.441179;-1.110223e-16;1.110223e-16;0
26.886259;-14.271029;-2.090275;0;0;0;0;2.220446e-16;-1.110223e-16;2.245002e-17;0;0;0;0;2.23551e-16;-1.125287e-16;1.680399e-16;45;0;2.240532e-16;1.975333e-16;2.220446e-16;4.889195e-17;-3.991901e-18;-1.110223e-16;-5.288385e-17;-2.112451;1.110223e-16;-1.110223e-16;0
28.499246;-14.271029;-2.815807;0;0;0;0;0;0;1.08672e-17;0;0;0;0;1.08672e-17;-1.08672e-17;1.08672e-17;45;0;1.44896e-17;1.254836e-17;0;2.17344e-17;0;0;-2.17344e-17;-2.838146;0;0;0
30.112232;-14.271029;-3.601336;0;0;0;0;-1.110223e-16;0;8.151338e-18;0;0;0;0;5.952854e-19;-1.116176e-16;5.610644e-17;45;0;7.480858e-17;7.461094e-17;-1.110223e-16;1.630268e-17;0;0;-1.630268e-17;-3.623605;-1.110223e-16;1.110223e-16;0
31.725218;-14.271029;-4.449574;0;0;0;0;0;-1.110223e-16;8.964227e-18;0;0;0;0;7.191366e-19;-1.117414e-16;5.623029e-17;45;0;7.497372e-17;7.473516e-17;0;2.173917e-17;-3.810716e-18;-1.110223e-16;-2.554988e-17;-4.475078;-1.110223e-16;1.110223e-16;0
33.338204;-14.271029;-5.373557;0;0;0;0;-1.110223e-16;0;-2.445881e-17;0;0;0;0;5.149554e-18;-1.161719e-16;6.066071e-17;45;0;8.088094e-17;7.922023e-17;-1.110223e-16;-4.891761e-17;0;0;4.891761e-17;-5.390088;-1.110223e-16;1.110223e-16;0
34.95119;-14.271029;-6.348483;0;0;0;0;0;0;-1.404565e-17;0;0;0;0;1.404565e-17;-1.404565e-17;1.404565e-17;45;0;1.872754e-17;1.621853e-17;0;-2.809131e-17;0;0;2.809131e-17;-6.347839;0;0;0
-44.085126;-15.884015;-18.058476;0;0;0;0;-2.220446e-16;-2.220446e-16;-7.631569e-17;0;0;0;0;-1.457289e-16;-2.983603e-16;7.631569e-17;45;0;1.017543e-16;1.722738e-16;-2.220446e-16;-1.109059e-16;-4.172544e-17;-2.220446e-16;6.918051e-17;-18.057916;-4.440892e-16;4.440892e-16;0
-42.47214;-15.884015;-16.314182;0;0;0;0;0;0;0;0;0;0;0;0;0;0;45;0;0;0;0;0;0;0;0;-16.338109;0;0;0
-40.859154;-15.884015;-14.646426;0;0;0;0;-2.220446e-16;0;2.722851e-17;0;0;0;0;3.290178e-18;-2.253348e-16;1.143125e-16;45;0;1.524166e-16;1.513318e-16;-2.220446e-16;5.445701e-17;0;0;-5.445701e-17;-14.697629;-2.220446e-16;2.220446e-16;0
-39.246168;-15.884015;-13.123941;0;0;0;0;0;0;-1.088796e-17;0;0;0;0;1.088796e-17;-1.088796e-17;1.088796e-17;45;0;1.451729e-17;1.257234e-17;0;-2.177593e-17;0;0;2.177593e-17;-13.159568;0;0;0
-37.633182;-15.884015;-11.691417;0;0;0;0;-2.220446e-16;-1.110223e-16;-2.555778e-17;0;0;0;0;-1.054214e-16;-2.276456e-16;6.11121e-17;45;0;8.148279e-17;1.315505e-16;-2.220446e-16;-5.442361e-17;3.308052e-18;-1.110223e-16;5.773167e-17;-11.735939;-3.330669e-16;3.330669e-16;0
-36.020196;-15.884015;-10.377068;0;0;0;0;0;0;1.088128e-17;0;0;0;0;1.088128e-17;-1.088128e-17;1.088128e-17;45;0;1.450838e-17;1.256462e-17;0;2.176257e-17;0;0;-2.176257e-17;-10.402093;0;0;0
-34.40721;-15.884015;-9.129653;0;0;0;0;0;2.220446e-16;7.397217e-18;0;0;0;0;2.222908e-16;-2.461588e-19;1.112685e-16;45;0;1.48358e-16;1.48276e-16;0;2.176079e-17;-6.96636e-18;2.220446e-16;-2.872716e-17;-9.159167;2.220446e-16;-2.220446e-16;0
-32.794224;-15.884015;-7.975518;0;0;0;0;-1.110223e-16;0;-8.160129e-18;0;0;0;0;5.965632e-19;-1.116189e-16;5.610771e-17;45;0;7.481029e-17;7.461223e-17;-1.110223e-16;-1.632026e-17;0;0;1.632026e-17;-8.003556;-1.110223e-16;1.110223e-16;0
-31.181238;-15.884015;-6.918109;0;0;0;0;0;-1.110223e-16;1.836128e-18;0;0;0;0;3.035826e-20;-1.110527e-16;5.554151e-17;45;0;7.405534e-17;7.404523e-17;0;0;3.672256e-18;-1.110223e-16;3.672256e-18;-6.936628;-1.110223e-16;1.110223e-16;0
-29.568251;-15.884015;-5.931054;0;0;0;0;2.220446e-16;0;7.091742e-23;0;0;0;0;2.220446e-16;-2.26551e-29;1.110223e-16;45;0;1.480297e-16;1.480297e-16;2.220446e-16;1.418348e-22;0;0;-1.418348e-22;-5.943362;2.220446e-16;-2.220446e-16;0
-27.955265;-15.884015;-4.991527;0;0;0;0;0;0;1.088236e-17;0;0;0;0;1.088236e-17;-1.088236e-17;1.088236e-17;45;0;1.450981e-17;1.256586e-17;0;2.176471e-17;0;0;-2.176471e-17;-5.012581;0;0;0
-26.342279;-15.884015;-4.118505;0;0;0;0;0;-1.110223e-16;1.932032e-18;0;0;0;0;3.361144e-20;-1.110559e-16;5.554476e-17;45;0;7.405968e-17;7.404848e-17;0;0;3.864065e-18;-1.110223e-16;3.864065e-18;-4.146127;-1.110223e-16;1.110223e-16;0
-24.729293;-15.884015;-3.324348;0;0;0;0;2.220446e-16;0;-2.176333e-17;0;0;0;0;2.241576e-16;-2.112989e-18;1.131353e-16;45;0;1.508471e-16;1.501477e-16;2.220446e-16;-4.352666e-17;0;0;4.352666e-17;-3.341388;2.220446e-16;-2.220446e-16;0
-23.116307;-15.884015;-2.572628;0;0;0;0;2.220446e-16;-1.110223e-16;-2.11387e-17;0;0;0;0;2.233809e-16;-1.123585e-16;1.678697e-16;45;0;2.238263e-16;1.973403e-16;2.220446e-16;-4.623826e-17;3.960863e-18;-1.110223e-16;5.019913e-17;-2.589814;1.110223e-16;-1.110223e-16;0
-21.503321;-15.884015;-1.86174;0;0;0;0;0;-1.110223e-16;-2.110676e-17;0;0;0;0;3.877258e-18;-1.148996e-16;5.938841e-17;45;0;7.918454e-17;7.792428e-17;0;-4.621895e-17;4.005429e-18;-1.110223e-16;5.022438e-17;-1.885189;-1.110223e-16;1.110223e-16;0
-19.890335;-15.884015;-1.208917;0;0;0;0;-1.110223e-16;0;-2.038155e-17;0;0;0;0;3.623402e-18;-1.146457e-16;5.913455e-17;45;0;7.884607e-17;7.766645e-17;-1.110223e-16;-4.07631e-17;0;0;4.07631e-17;-1.240772;-1.110223e-16;1.110223e-16;0
-18.277349;-15.884015;-0.639676;0;0;0;0;0;-1.110223e-16;1.156861e-17;0;0;0;0;1.192646e-18;-1.12215e-16;5.67038e-17;45;0;7.560506e-17;7.521067e-17;0;1.90183e-17;4.118918e-18;-1.110223e-16;-1.489938e-17;-0.658943;-1.110223e-16;1.110223e-16;0
-16.664363;-15.884015;-0.117646;0;0;0;0;-1.110223e-16;-1.110223e-16;2.393119e-18;0;0;0;0;-1.086292e-16;-1.134154e-16;2.393119e-18;45;0;3.190826e-18;7.406643e-17;-1.110223e-16;2.717482e-18;2.068757e-18;-1.110223e-16;-6.487256e-19;-0.121363;-2.220446e-16;2.220446e-16;0
-15.051377;-15.884015;0.407637;0;0;0;0;0;-1.110223e-16;1.191211e-17;0;0;0;0;1.263723e-18;-1.12286e-16;5.677487e-17;45;0;7.569983e-17;7.528212e-17;0;2.173663e-17;2.087601e-18;-1.110223e-16;-1.964903e-17;0.365231;-1.110223e-16;1.110223e-16;0
-13.438391;-15.884015;0.824314;0;0;0;0;0;2.220446e-16;-2.120442e-18;0;0;0;0;2.220649e-16;-2.024756e-20;1.110426e-16;45;0;1.480567e-16;1.4805e-16;0;0;-4.240883e-18;2.220446e-16;-4.240883e-18;0.783358;2.220446e-16;-2.220446e-16;0
-11.825405;-15.884015;1.136463;0;0;0;0;0;-1.110223e-16;1.066247e-18;0;0;0;0;1.023919e-20;-1.110325e-16;5.552139e-17;45;0;7.402852e-17;7.402511e-17;0;0;2.132494e-18;-1.110223e-16;2.132494e-18;1.137549;-1.110223e-16;1.110223e-16;0
-10.212419;-15.884015;1.464563;0;0;0;0;0;0;0;0;0;0;0;0;0;0;45;0;0;0;0;0;0;0;0;1.469252;0;0;0
-8.599433;-15.884015;1.814823;0;0;0;0;-1.110223e-16;2.220446e-16;-1.192326e-17;0;0;0;0;2.224709e-16;-1.114486e-16;1.669597e-16;45;0;2.22613e-16;1.963083e-16;-1.110223e-16;-2.171866e-17;-2.127858e-18;2.220446e-16;1.95908e-17;1.805231;1.110223e-16;-1.110223e-16;0
-6.986447;-15.884015;2.143359;0;0;0;0;0;-1.110223e-16;1.193062e-17;0;0;0;0;1.267609e-18;-1.122899e-16;5.677876e-17;45;0;7.570501e-17;7.528604e-17;0;2.172208e-17;2.139164e-18;-1.110223e-16;-1.958291e-17;2.118571;-1.110223e-16;1.110223e-16;0
-5.373461;-15.884015;2.402819;0;0;0;0;-1.110223e-16;-1.110223e-16;-9.641613e-18;0;0;0;0;-1.013807e-16;-1.206639e-16;9.641613e-18;45;0;1.285548e-17;7.48475e-17;-1.110223e-16;-2.036116e-17;1.077938e-18;-1.110223e-16;2.14391e-17;2.370679;-2.220446e-16;2.220446e-16;0
-3.760475;-15.884015;2.567809;0;0;0;0;0;0;0;0;0;0;0;0;0;0;45;0;0;0;0;0;0;0;0;2.548604;0;0;0
-2.147489;-15.884015;2.674518;0;0;0;0;-1.110223e-16;0;1.118961e-17;0;0;0;0;1.116539e-18;-1.121388e-16;5.662769e-17;45;0;7.550358e-17;7.513417e-17;-1.110223e-16;2.237922e-17;0;0;-2.237922e-17;2.661409;-1.110223e-16;1.110223e-16;0
-0.534503;-15.884015;2.741309;0;0;0;0;2.220446e-16;0;-1.101795e-17;0;0;0;0;2.2259e-16;-5.45376e-19;1.115677e-16;45;0;1.487569e-16;1.485754e-16;2.220446e-16;-2.20359e-17;0;0;2.20359e-17;2.739156;2.220446e-16;-2.220446e-16;0
1.078483;-15.884015;2.804035;0;0;0;0;2.220446e-16;2.220446e-16;-1.146182e-17;0;0;0;0;2.335064e-16;2.105828e-16;1.146182e-17;45;0;1.528243e-17;1.486202e-16;2.220446e-16;-2.238031e-17;-5.433346e-19;2.220446e-16;2.183698e-17;2.799021;4.440892e-16;-4.440892e-16;0
2.691469;-15.884015;2.856354;0;0;0;0;-1.110223e-16;0;8.479617e-20;0;0;0;0;6.476523e-23;-1.110224e-16;5.551122e-17;45;0;7.401496e-17;7.401493e-17;-1.110223e-16;1.695923e-19;0;0;-1.695923e-19;2.837391;-1.110223e-16;1.110223e-16;0
4.304455;-15.884015;2.855103;0;0;0;0;-1.110223e-16;0;-1.696153e-19;0;0;0;0;2.591308e-22;-1.110226e-16;5.551141e-17;45;0;7.401521e-17;7.401513e-17;-1.110223e-16;-3.392307e-19;0;0;3.392307e-19;2.83076;-1.110223e-16;1.110223e-16;0
5.917441;-15.884015;2.780103;0;0;0;0;0;0;1.085479e-17;0;0;0;0;1.085479e-17;-1.085479e-17;1.085479e-17;45;0;1.447305e-17;1.253403e-17;0;2.170957e-17;0;0;-2.170957e-17;2.769003;0;0;0
7.530427;-15.884015;2.670543;0;0;0;0;0;2.220446e-16;-2.115818e-17;0;0;0;0;2.240428e-16;-1.998139e-18;1.130204e-16;45;0;1.506939e-16;1.500323e-16;0;-4.34e-17;1.083644e-18;2.220446e-16;4.448365e-17;2.654999;2.220446e-16;-2.220446e-16;0
9.143413;-15.884015;2.517278;0;0;0;0;2.220446e-16;0;-1.01704e-17;0;0;0;0;2.225095e-16;-4.648662e-19;1.114872e-16;45;0;1.486496e-16;1.484948e-16;2.220446e-16;-2.034081e-17;0;0;2.034081e-17;2.499344;2.220446e-16;-2.220446e-16;0
10.756399;-15.884015;2.319556;0;0;0;0;0;0;0;0;0;0;0;0;0;0;45;0;0;0;0;0;0;0;0;2.302309;0;0;0
12.369385;-15.884015;2.082342;0;0;0;0;2.220446e-16;0;-1.085264e-17;0;0;0;0;2.225738e-16;-5.291719e-19;1.115515e-16;45;0;1.487353e-16;1.485592e-16;2.220446e-16;-2.170528e-17;0;0;2.170528e-17;2.064788;2.220446e-16;-2.220446e-16;0
13.982371;-15.884015;1.803968;0;0;0;0;2.220446e-16;0;1.220989e-17;0;0;0;0;2.22714e-16;-6.693852e-19;1.116917e-16;45;0;1.489222e-16;1.486996e-16;2.220446e-16;2.441978e-17;0;0;-2.441978e-17;1.783953;2.220446e-16;-2.220446e-16;0
15.595357;-15.884015;1.474982;0;0;0;0;2.220446e-16;0;-9.497225e-18;0;0;0;0;2.224501e-16;-4.054721e-19;1.114278e-16;45;0;1.485704e-16;1.484354e-16;2.220446e-16;-1.899445e-17;0;0;1.899445e-17;1.456353;2.220446e-16;-2.220446e-16;0
17.208343;-15.884015;1.099092;0;0;0;0;0;0;0;0;0;0;0;0;0;0;45;0;0;0;0;0;0;0;0;1.078572;0;0;0
18.821329;-15.884015;0.671962;0;0;0;0;0;0;0;0;0;0;0;0;0;0;45;0;0;0;0;0;0;0;0;0.650445;0;0;0
20.434315;-15.884015;0.192253;0;0;0;0;-1.110223e-16;2.220446e-16;-1.014362e-17;0;0;0;0;2.223532e-16;-1.113309e-16;1.668421e-16;45;0;2.224561e-16;1.961749e-16;-1.110223e-16;-2.443648e-17;4.149237e-18;2.220446e-16;2.858572e-17;0.170788;1.110223e-16;-1.110223e-16;0
22.047301;-15.884015;-0.341215;0;0;0;0;0;0;1.221983e-17;0;0;0;0;1.221983e-17;-1.221983e-17;1.221983e-17;45;0;1.62931e-17;1.411024e-17;0;2.443966e-17;0;0;-2.443966e-17;-0.358683;0;0;0
23.660287;-15.884015;-0.92019;0;0;0;0;0;2.220446e-16;2.037393e-18;0;0;0;0;2.220633e-16;-1.869274e-20;1.11041e-16;45;0;1.480547e-16;1.480484e-16;0;0;4.074787e-18;2.220446e-16;4.074787e-18;-0.93608;2.220446e-16;-2.220446e-16;0
25.273273;-15.884015;-1.543895;0;0;0;0;0;2.220446e-16;2.018277e-18;0;0;0;0;2.220629e-16;-1.834363e-20;1.110406e-16;45;0;1.480542e-16;1.480481e-16;0;0;4.036553e-18;2.220446e-16;4.036553e-18;-1.559154;2.220446e-16;-2.220446e-16;0
26.886259;-15.884015;-2.210598;0;0;0;0;-1.110223e-16;0;-1.357543e-17;0;0;0;0;1.635854e-18;-1.126582e-16;5.7147e-17;45;0;7.619601e-17;7.565662e-17;-1.110223e-16;-2.715086e-17;0;0;2.715086e-17;-2.23173;-1.110223e-16;1.110223e-16;0
28.499246;-15.884015;-2.935919;0;0;0;0;0;-1.110223e-16;1.97562e-17;0;0;0;0;3.410792e-18;-1.144331e-16;5.892194e-17;45;0;7.856259e-17;7.74507e-17;0;4.344979e-17;-3.937386e-18;-1.110223e-16;-4.738717e-17;-2.957915;-1.110223e-16;1.110223e-16;0
30.112232;-15.884015;-3.720792;0;0;0;0;0;2.220446e-16;-6.986956e-18;0;0;0;0;2.222643e-16;-2.196375e-19;1.112419e-16;45;0;1.483226e-16;1.482494e-16;0;-2.173121e-17;7.757294e-18;2.220446e-16;2.94885e-17;-3.74393;2.220446e-16;-2.220446e-16;0
31.725218;-15.884015;-4.570586;0;0;0;0;0;-1.110223e-16;8.963928e-18;0;0;0;0;7.19089e-19;-1.117414e-16;5.623024e-17;45;0;7.497365e-17;7.473511e-17;0;2.173855e-17;-3.810696e-18;-1.110223e-16;-2.554925e-17;-4.595267;-1.110223e-16;1.110223e-16;0
33.338204;-15.884015;-5.493646;0;0;0;0;0;2.220446e-16;-7.128357e-18;0;0;0;0;2.222732e-16;-2.286082e-19;1.112509e-16;45;0;1.483346e-16;1.482584e-16;0;-2.174372e-17;7.487002e-18;2.220446e-16;2.923072e-17;-5.512495;2.220446e-16;-2.220446e-16;0
34.95119;-15.884015;-6.475569;0;0;0;0;2.220446e-16;0;4.953576e-18;0;0;0;0;2.221551e-16;-1.10454e-19;1.111328e-16;45;0;1.48177e-16;1.481402e-16;2.220446e-16;9.907153e-18;0;0;-9.907153e-18;-6.474352;2.220446e-16;-2.220446e-16;0
-42.47214;-17.497001;-16.421713;0;0;0;0;0;2.220446e-16;1.552212e-17;0;0;0;0;2.231244e-16;-1.079828e-18;1.121021e-16;45;0;1.494695e-16;1.491109e-16;0;0;3.104423e-17;2.220446e-16;3.104423e-17;-16.445096;2.220446e-16;-2.220446e-16;0
-40.859154;-17.497001;-14.766954;0;0;0;0;2.220446e-16;-1.110223e-16;-3.894941e-18;0;0;0;0;2.220902e-16;-1.110678e-16;1.66579e-16;45;0;2.221053e-16;1.958766e-16;2.220446e-16;-1.088733e-17;3.09745e-18;-1.110223e-16;1.398478e-17;-14.813081;1.110223e-16;-1.110223e-16;0
-39.246168;-17.497001;-13.249089;0;0;0;0;0;0;0;0;0;0;0;0;0;0;45;0;0;0;0;0;0;0;0;-13.278351;0;0;0
-37.633182;-17.497001;-11.825836;0;0;0;0;-2.220446e-16;0;-1.632743e-17;0;0;0;0;1.19417e-18;-2.232388e-16;1.122165e-16;45;0;1.49622e-16;1.492255e-16;-2.220446e-16;-3.265486e-17;0;0;3.265486e-17;-11.854203;-2.220446e-16;2.220446e-16;0
-36.020196;-17.497001;-10.507427;0;0;0;0;2.220446e-16;2.220446e-16;-1.972189e-17;0;0;0;0;2.417665e-16;2.023227e-16;1.972189e-17;45;0;2.629585e-17;1.497712e-16;2.220446e-16;-3.265558e-17;-6.788203e-18;2.220446e-16;2.586737e-17;-10.5173;4.440892e-16;-4.440892e-16;0
-34.40721;-17.497001;-9.245778;0;0;0;0;0;-1.110223e-16;2.351138e-17;0;0;0;0;4.773781e-18;-1.157961e-16;6.028493e-17;45;0;8.037991e-17;7.883684e-17;0;4.35457e-17;3.477064e-18;-1.110223e-16;-4.006864e-17;-9.270429;-1.110223e-16;1.110223e-16;0
-32.794224;-17.497001;-8.082776;0;0;0;0;0;-1.110223e-16;1.791221e-18;0;0;0;0;2.889184e-20;-1.110512e-16;5.554004e-17;45;0;7.405339e-17;7.404376e-17;0;0;3.582442e-18;-1.110223e-16;3.582442e-18;-8.112399;-1.110223e-16;1.110223e-16;0
-31.181238;-17.497001;-7.023101;0;0;0;0;0;2.220446e-16;-1.834472e-18;0;0;0;0;2.220598e-16;-1.515487e-20;1.110375e-16;45;0;1.480499e-16;1.480449e-16;0;0;-3.668944e-18;2.220446e-16;-3.668944e-18;-7.04336;2.220446e-16;-2.220446e-16;0
-29.568251;-17.497001;-6.026425;0;0;0;0;2.220446e-16;-1.110223e-16;1.002623e-17;0;0;0;0;2.223461e-16;-1.113238e-16;1.66835e-16;45;0;2.224467e-16;1.961669e-16;2.220446e-16;1.632342e-17;3.729042e-18;-1.110223e-16;-1.259438e-17;-6.047468;1.110223e-16;-1.110223e-16;0
-27.955265;-17.497001;-5.085883;0;0;0;0;0;0;0;0;0;0;0;0;0;0;45;0;0;0;0;0;0;0;0;-5.113813;0;0;0
-26.342279;-17.497001;-4.216119;0;0;0;0;0;-1.110223e-16;1.931719e-18;0;0;0;0;3.360055e-20;-1.110559e-16;5.554475e-17;45;0;7.405967e-17;7.404847e-17;0;0;3.863439e-18;-1.110223e-16;3.863439e-18;-4.245694;-1.110223e-16;1.110223e-16;0
-24.729293;-17.497001;-3.419986;0;0;0;0;-1.110223e-16;0;2.718364e-18;0;0;0;0;6.651889e-20;-1.110888e-16;5.557767e-17;45;0;7.410356e-17;7.40814e-17;-1.110223e-16;5.436729e-18;0;0;-5.436729e-18;-3.441167;-1.110223e-16;1.110223e-16;0
-23.116307;-17.497001;-2.670059;0;0;0;0;0;2.220446e-16;-1.285394e-17;0;0;0;0;2.227862e-16;-7.416251e-19;1.117639e-16;45;0;1.490186e-16;1.48772e-16;0;-2.174247e-17;-3.965415e-18;2.220446e-16;1.777705e-17;-2.692322;2.220446e-16;-2.220446e-16;0
-21.503321;-17.497001;-1.969549;0;0;0;0;0;-1.110223e-16;2.00508e-18;0;0;0;0;3.620025e-20;-1.110585e-16;5.554735e-17;45;0;7.406314e-17;7.405107e-17;0;0;4.01016e-18;-1.110223e-16;4.01016e-18;-1.991602;-1.110223e-16;1.110223e-16;0
-19.890335;-17.497001;-1.321523;0;0;0;0;0;0;1.086318e-17;0;0;0;0;1.086318e-17;-1.086318e-17;1.086318e-17;45;0;1.448424e-17;1.254372e-17;0;2.172636e-17;0;0;-2.172636e-17;-1.349976;0;0;0
-18.277349;-17.497001;-0.751676;0;0;0;0;-1.110223e-16;0;2.172673e-17;0;0;0;0;4.100414e-18;-1.151227e-16;5.961156e-17;45;0;7.948208e-17;7.815114e-17;-1.110223e-16;4.345346e-17;0;0;-4.345346e-17;-0.766444;-1.110223e-16;1.110223e-16;0
-16.664363;-17.497001;-0.223753;0;0;0;0;0;0;-1.358124e-18;0;0;0;0;1.358124e-18;-1.358124e-18;1.358124e-18;45;0;1.810832e-18;1.568227e-18;0;-2.716248e-18;0;0;2.716248e-18;-0.225825;0;0;0
-15.051377;-17.497001;0.299452;0;0;0;0;0;-1.110223e-16;1.045277e-18;0;0;0;0;9.840422e-21;-1.110321e-16;5.552099e-17;45;0;7.402799e-17;7.402471e-17;0;0;2.090553e-18;-1.110223e-16;2.090553e-18;0.25766;-1.110223e-16;1.110223e-16;0
-13.438391;-17.497001;0.696144;0;0;0;0;0;2.220446e-16;-2.123425e-18;0;0;0;0;2.220649e-16;-2.030457e-20;1.110426e-16;45;0;1.480568e-16;1.4805e-16;0;0;-4.246849e-18;2.220446e-16;-4.246849e-18;0.669395;2.220446e-16;-2.220446e-16;0
-11.825405;-17.497001;1.007428;0;0;0;0;0;-1.110223e-16;-2.063116e-17;0;0;0;0;3.709896e-18;-1.147322e-16;5.922105e-17;45;0;7.89614e-17;7.775427e-17;0;-4.339384e-17;2.13153e-18;-1.110223e-16;4.552537e-17;1.01981;-1.110223e-16;1.110223e-16;0
-10.212419;-17.497001;1.346693;0;0;0;0;2.220446e-16;0;-1.221156e-17;0;0;0;0;2.227142e-16;-6.695676e-19;1.116919e-16;45;0;1.489225e-16;1.486998e-16;2.220446e-16;-2.442312e-17;0;0;2.442312e-17;1.354661;2.220446e-16;-2.220446e-16;0
-8.599433;-17.497001;1.701332;0;0;0;0;0;2.220446e-16;2.065242e-17;0;0;0;0;2.239492e-16;-1.904551e-18;1.129269e-16;45;0;1.505691e-16;1.499383e-16;0;4.343183e-17;-2.126986e-18;2.220446e-16;-4.555882e-17;1.695566;2.220446e-16;-2.220446e-16;0
-6.986447;-17.497001;2.03553;0;0;0;0;-1.110223e-16;0;1.356829e-18;0;0;0;0;1.657964e-20;-1.110389e-16;5.552773e-17;45;0;7.403697e-17;7.403145e-17;-1.110223e-16;2.713658e-18;0;0;-2.713658e-18;2.009455;-1.110223e-16;1.110223e-16;0
-5.373461;-17.497001;2.295327;0;0;0;0;-1.110223e-16;2.220446e-16;1.045341e-17;0;0;0;0;2.223724e-16;-1.113501e-16;1.668612e-16;45;0;2.224816e-16;1.961966e-16;-1.110223e-16;2.306305e-17;-2.156223e-18;2.220446e-16;-2.521928e-17;2.260092;1.110223e-16;-1.110223e-16;0
-3.760475;-17.497001;2.459565;0;0;0;0;0;-1.110223e-16;8.809097e-19;0;0;0;0;6.989164e-21;-1.110293e-16;5.551814e-17;45;0;7.402419e-17;7.402186e-17;0;6.781077e-19;1.083712e-18;-1.110223e-16;4.056041e-19;2.433883;-1.110223e-16;1.110223e-16;0
-2.147489;-17.497001;2.559883;0;0;0;0;2.220446e-16;-1.110223e-16;-6.735875e-20;0;0;0;0;2.220446e-16;-1.110223e-16;1.665335e-16;45;0;2.220446e-16;1.95825e-16;2.220446e-16;-6.777081e-19;5.429907e-19;-1.110223e-16;1.220699e-18;2.542438;1.110223e-16;-1.110223e-16;0
-0.534503;-17.497001;2.621815;0;0;0;0;0;2.220446e-16;1.056811e-17;0;0;0;0;2.225464e-16;-5.0185e-19;1.115242e-16;45;0;1.486989e-16;1.485319e-16;0;2.167949e-17;-5.432662e-19;2.220446e-16;-2.222275e-17;2.617486;2.220446e-16;-2.220446e-16;0
1.078483;-17.497001;2.685874;0;0;0;0;0;-1.110223e-16;-1.056867e-17;0;0;0;0;9.971194e-19;-1.120194e-16;5.650827e-17;45;0;7.534436e-17;7.50142e-17;0;-2.168062e-17;5.4328e-19;-1.110223e-16;2.222389e-17;2.679047;-1.110223e-16;1.110223e-16;0
2.691469;-17.497001;2.745849;0;0;0;0;0;-1.110223e-16;-1.07101e-17;0;0;0;0;1.023741e-18;-1.12046e-16;5.653489e-17;45;0;7.537986e-17;7.504094e-17;0;-2.169198e-17;2.717832e-19;-1.110223e-16;2.196376e-17;2.722045;-1.110223e-16;1.110223e-16;0
4.304455;-17.497001;2.750554;0;0;0;0;-1.110223e-16;0;-1.695206e-19;0;0;0;0;2.588413e-22;-1.110226e-16;5.551141e-17;45;0;7.401521e-17;7.401513e-17;-1.110223e-16;-3.390411e-19;0;0;3.390411e-19;2.719251;-1.110223e-16;1.110223e-16;0
5.917441;-17.497001;2.673202;0;0;0;0;2.220446e-16;0;3.391627e-19;0;0;0;0;2.220451e-16;-5.180539e-22;1.110228e-16;45;0;1.480304e-16;1.480303e-16;2.220446e-16;6.783254e-19;0;0;-6.783254e-19;2.657;2.220446e-16;-2.220446e-16;0
7.530427;-17.497001;2.552022;0;0;0;0;0;-1.110223e-16;-1.139061e-17;0;0;0;0;1.156599e-18;-1.121789e-16;5.666775e-17;45;0;7.5557e-17;7.517443e-17;0;-2.169797e-17;-1.083257e-18;-1.110223e-16;2.061471e-17;2.539004;-1.110223e-16;1.110223e-16;0
9.143413;-17.497001;2.392353;0;0;0;0;2.220446e-16;2.220446e-16;1.758273e-18;0;0;0;0;2.238029e-16;2.202863e-16;1.758273e-18;45;0;2.344364e-18;1.480437e-16;2.220446e-16;1.355242e-18;2.161304e-18;2.220446e-16;8.060616e-19;2.379357;4.440892e-16;-4.440892e-16;0
10.756399;-17.497001;2.195924;0;0;0;0;0;0;0;0;0;0;0;0;0;0;45;0;0;0;0;0;0;0;0;2.180746;0;0;0
12.369385;-17.497001;1.961696;0;0;0;0;0;0;0;0;0;0;0;0;0;0;45;0;0;0;0;0;0;0;0;1.943507;0;0;0
13.982371;-17.497001;1.68459;0;0;0;0;0;0;1.084325e-17;0;0;0;0;1.084325e-17;-1.084325e-17;1.084325e-17;45;0;1.445767e-17;1.252071e-17;0;2.168651e-17;0;0;-2.168651e-17;1.662721;0;0;0
15.595357;-17.497001;1.354202;0;0;0;0;0;0;0;0;0;0;0;0;0;0;45;0;0;0;0;0;0;0;0;1.334953;0;0;0
17.208343;-17.497001;0.977442;0;0;0;0;0;-1.110223e-16;-1.190105e-17;0;0;0;0;1.261402e-18;-1.122837e-16;5.677256e-17;45;0;7.569674e-17;7.52798e-17;0;-2.169215e-17;-2.109941e-18;-1.110223e-16;1.958221e-17;0.957409;-1.110223e-16;1.110223e-16;0
18.821329;-17.497001;0.550981;0;0;0;0;0;0;1.084873e-17;0;0;0;0;1.084873e-17;-1.084873e-17;1.084873e-17;45;0;1.446497e-17;1.252703e-17;0;2.169746e-17;0;0;-2.169746e-17;0.530705;0;0;0
20.434315;-17.497001;0.073235;0;0;0;0;-1.110223e-16;0;-1.220965e-17;0;0;0;0;1.326894e-18;-1.123492e-16;5.683805e-17;45;0;7.578406e-17;7.534566e-17;-1.110223e-16;-2.44193e-17;0;0;2.44193e-17;0.053236;-1.110223e-16;1.110223e-16;0
22.047301;-17.497001;-0.457583;0;0;0;0;2.220446e-16;0;1.221561e-17;0;0;0;0;2.227146e-16;-6.700105e-19;1.116923e-16;45;0;1.489231e-16;1.487002e-16;2.220446e-16;2.443122e-17;0;0;-2.443122e-17;-0.474628;2.220446e-16;-2.220446e-16;0
23.660287;-17.497001;-1.037068;0;0;0;0;0;0;0;0;0;0;0;0;0;0;45;0;0;0;0;0;0;0;0;-1.051985;0;0;0
25.273273;-17.497001;-1.663985;0;0;0;0;0;-1.110223e-16;8.845795e-18;0;0;0;0;7.003778e-19;-1.117227e-16;5.621153e-17;45;0;7.49487e-17;7.471634e-17;0;2.172476e-17;-4.033169e-18;-1.110223e-16;-2.575793e-17;-1.677496;-1.110223e-16;1.110223e-16;0
26.886259;-17.497001;-2.33688;0;0;0;0;-1.110223e-16;2.220446e-16;2.371581e-17;0;0;0;0;2.237248e-16;-1.127025e-16;1.682136e-16;45;0;2.242849e-16;1.977304e-16;-1.110223e-16;4.344372e-17;3.987906e-18;2.220446e-16;-3.945582e-17;-2.353172;1.110223e-16;-1.110223e-16;0
28.499246;-17.497001;-3.063752;0;0;0;0;0;2.220446e-16;3.937019e-18;0;0;0;0;2.221144e-16;-6.978439e-20;1.110921e-16;45;0;1.481228e-16;1.480995e-16;0;-3.097923e-22;7.874347e-18;2.220446e-16;7.874658e-18;-3.081362;2.220446e-16;-2.220446e-16;0
30.112232;-17.497001;-3.845872;0;0;0;0;0;0;-1.08638e-17;0;0;0;0;1.08638e-17;-1.08638e-17;1.08638e-17;45;0;1.448506e-17;1.254443e-17;0;-2.172759e-17;0;0;2.172759e-17;-3.86722;0;0;0
31.725218;-17.497001;-4.691726;0;0;0;0;0;0;3.260555e-17;0;0;0;0;3.260555e-17;-3.260555e-17;3.260555e-17;45;0;4.347407e-17;3.764965e-17;0;6.52111e-17;0;0;-6.52111e-17;-4.716375;0;0;0
33.338204;-17.497001;-5.61031;0;0;0;0;-1.110223e-16;2.220446e-16;3.742627e-18;0;0;0;0;2.220867e-16;-1.110643e-16;1.665755e-16;45;0;2.221007e-16;1.958726e-16;-1.110223e-16;6.551956e-22;7.484599e-18;2.220446e-16;7.483944e-18;-5.633851;1.110223e-16;-1.110223e-16;0
34.95119;-17.497001;-6.599003;0;0;0;0;0;0;0;0;0;0;0;0;0;0;45;0;0;0;0;0;0;0;0;-6.598586;0;0;0
-42.47214;-19.109987;-16.532289;0;0;0;0;-1.110223e-16;2.220446e-16;7.597605e-19;0;0;0;0;2.220463e-16;-1.11024e-16;1.665352e-16;45;0;2.220469e-16;1.958269e-16;-1.110223e-16;1.012759e-17;-8.608072e-18;2.220446e-16;-1.873566e-17;-16.536718;1.110223e-16;-1.110223e-16;0
-40.859154;-19.109987;-14.892788;0;0;0;0;-2.220446e-16;2.220446e-16;2.345426e-18;0;0;0;0;2.22057e-16;-2.22057e-16;2.22057e-16;45;0;2.96076e-16;2.564093e-16;-2.220446e-16;1.089003e-17;-6.199179e-18;2.220446e-16;-1.708921e-17;-14.928563;0;0;0
-39.246168;-19.109987;-13.370349;0;0;0;0;0;0;0;0;0;0;0;0;0;0;45;0;0;0;0;0;0;0;0;-13.392757;0;0;0
-37.633182;-19.109987;-11.938358;0;0;0;0;2.220446e-16;0;1.633745e-17;0;0;0;0;2.232402e-16;-1.195627e-18;1.122179e-16;45;0;1.496239e-16;1.49227e-16;2.220446e-16;3.267489e-17;0;0;-3.267489e-17;-11.964169;2.220446e-16;-2.220446e-16;0
-36.020196;-19.109987;-10.604341;0;0;0;0;2.220446e-16;2.220446e-16;-7.139681e-18;0;0;0;0;2.291843e-16;2.149049e-16;7.139681e-18;45;0;9.519575e-18;1.482591e-16;2.220446e-16;-1.089068e-17;-3.388678e-18;2.220446e-16;7.502007e-18;-10.623916;4.440892e-16;-4.440892e-16;0
-34.40721;-19.109987;-9.335818;0;0;0;0;0;0;0;0;0;0;0;0;0;0;45;0;0;0;0;0;0;0;0;-9.37495;0;0;0
-32.794224;-19.109987;-8.175486;0;0;0;0;-1.110223e-16;0;1.088388e-17;0;0;0;0;1.05692e-18;-1.120792e-16;5.656807e-17;45;0;7.54241e-17;7.507427e-17;-1.110223e-16;2.176776e-17;0;0;-2.176776e-17;-8.217457;-1.110223e-16;1.110223e-16;0
-31.181238;-19.109987;-7.125357;0;0;0;0;0;0;-1.088104e-17;0;0;0;0;1.088104e-17;-1.088104e-17;1.088104e-17;45;0;1.450805e-17;1.256434e-17;0;-2.176207e-17;0;0;2.176207e-17;-7.148544;0;0;0
-29.568251;-19.109987;-6.132413;0;0;0;0;-1.110223e-16;0;2.447573e-17;0;0;0;0;5.156377e-18;-1.161787e-16;6.066753e-17;45;0;8.089004e-17;7.92272e-17;-1.110223e-16;4.895145e-17;0;0;-4.895145e-17;-6.153033;-1.110223e-16;1.110223e-16;0
-27.955265;-19.109987;-5.193347;0;0;0;0;0;0;2.174962e-17;0;0;0;0;2.174962e-17;-2.174962e-17;2.174962e-17;45;0;2.899949e-17;2.51143e-17;0;4.349924e-17;0;0;-4.349924e-17;-5.22063;0;0;0
-26.342279;-19.109987;-4.329046;0;0;0;0;2.220446e-16;2.220446e-16;-2.367381e-17;0;0;0;0;2.457184e-16;1.983708e-16;2.367381e-17;45;0;3.156508e-17;1.505326e-16;2.220446e-16;-4.348287e-17;-3.864756e-18;2.220446e-16;3.961811e-17;-4.353592;4.440892e-16;-4.440892e-16;0
-24.729293;-19.109987;-3.532488;0;0;0;0;0;0;1.430136e-22;0;0;0;0;1.430136e-22;-1.430136e-22;1.430136e-22;45;0;1.906848e-22;1.651379e-22;0;2.860272e-22;0;0;-2.860272e-22;-3.550286;0;0;0
-23.116307;-19.109987;-2.78732;0;0;0;0;0;2.220446e-16;-1.984514e-18;0;0;0;0;2.220623e-16;-1.773509e-20;1.1104e-16;45;0;1.480534e-16;1.480475e-16;0;0;-3.969028e-18;2.220446e-16;-3.969028e-18;-2.803;2.220446e-16;-2.220446e-16;0
-21.503321;-19.109987;-2.092782;0;0;0;0;0;0;2.172763e-17;0;0;0;0;2.172763e-17;-2.172763e-17;2.172763e-17;45;0;2.897018e-17;2.508891e-17;0;4.345527e-17;0;0;-4.345527e-17;-2.104483;0;0;0
-19.890335;-19.109987;-1.439895;0;0;0;0;0;0;2.172568e-17;0;0;0;0;2.172568e-17;-2.172568e-17;2.172568e-17;45;0;2.896757e-17;2.508665e-17;0;4.345135e-17;0;0;-4.345135e-17;-1.463742;0;0;0
-18.277349;-19.109987;-0.86403;0;0;0;0;0;0;0;0;0;0;0;0;0;0;45;0;0;0;0;0;0;0;0;-0.877482;0;0;0
-16.664363;-19.109987;-0.330883;0;0;0;0;2.220446e-16;-1.110223e-16;1.021585e-17;0;0;0;0;2.223577e-16;-1.113353e-16;1.668465e-16;45;0;2.22462e-16;1.961799e-16;2.220446e-16;1.629805e-17;4.13364e-18;-1.110223e-16;-1.216441e-17;-0.334572;1.110223e-16;-1.110223e-16;0
-15.051377;-19.109987;0.188145;0;0;0;0;0;-1.110223e-16;1.046363e-18;0;0;0;0;9.860878e-21;-1.110322e-16;5.552101e-17;45;0;7.402802e-17;7.402473e-17;0;0;2.092725e-18;-1.110223e-16;2.092725e-18;0.146613;-1.110223e-16;1.110223e-16;0
-13.438391;-19.109987;0.575528;0;0;0;0;0;0;0;0;0;0;0;0;0;0;45;0;0;0;0;0;0;0;0;0.554096;0;0;0
-11.825405;-19.109987;0.889444;0;0;0;0;0;-1.110223e-16;1.065218e-18;0;0;0;0;1.021944e-20;-1.110325e-16;5.552137e-17;45;0;7.40285e-17;7.402509e-17;0;0;2.130437e-18;-1.110223e-16;2.130437e-18;0.903204;-1.110223e-16;1.110223e-16;0
-10.212419;-19.109987;1.237712;0;0;0;0;0;0;1.085995e-17;0;0;0;0;1.085995e-17;-1.085995e-17;1.085995e-17;45;0;1.447994e-17;1.253999e-17;0;2.171991e-17;0;0;-2.171991e-17;1.241662;0;0;0
-8.599433;-19.109987;1.593491;0;0;0;0;0;0;0;0;0;0;0;0;0;0;45;0;0;0;0;0;0;0;0;1.585856;0;0;0
-6.986447;-19.109987;1.922588;0;0;0;0;0;0;0;0;0;0;0;0;0;0;45;0;0;0;0;0;0;0;0;1.899096;0;0;0
-5.373461;-19.109987;2.175823;0;0;0;0;0;0;-1.085128e-17;0;0;0;0;1.085128e-17;-1.085128e-17;1.085128e-17;45;0;1.446837e-17;1.252998e-17;0;-2.170256e-17;0;0;2.170256e-17;2.147391;0;0;0
-3.760475;-19.109987;2.338008;0;0;0;0;2.220446e-16;0;-6.779347e-19;0;0;0;0;2.220467e-16;-2.069815e-21;1.110244e-16;45;0;1.480325e-16;1.480318e-16;2.220446e-16;-1.355869e-18;0;0;1.355869e-18;2.317717;2.220446e-16;-2.220446e-16;0
-2.147489;-19.109987;2.431198;0;0;0;0;0;0;1.084343e-17;0;0;0;0;1.084343e-17;-1.084343e-17;1.084343e-17;45;0;1.445791e-17;1.252092e-17;0;2.168686e-17;0;0;-2.168686e-17;2.423223;0;0;0
-0.534503;-19.109987;2.487838;0;0;0;0;2.220446e-16;2.220446e-16;3.208349e-17;0;0;0;0;2.541281e-16;1.899611e-16;3.208349e-17;45;0;4.277799e-17;1.525951e-16;2.220446e-16;6.471028e-17;-5.432888e-19;2.220446e-16;-6.525357e-17;2.495925;4.440892e-16;-4.440892e-16;0
1.078483;-19.109987;2.550906;0;0;0;0;0;2.220446e-16;-1.128314e-17;0;0;0;0;2.226165e-16;-5.718771e-19;1.115942e-16;45;0;1.487922e-16;1.48602e-16;0;-2.202304e-17;-5.432431e-19;2.220446e-16;2.14798e-17;2.558443;2.220446e-16;-2.220446e-16;0
2.691469;-19.109987;2.617439;0;0;0;0;0;2.220446e-16;1.070954e-17;0;0;0;0;2.225599e-16;-5.153406e-19;1.115376e-16;45;0;1.487169e-16;1.485454e-16;0;2.169083e-17;-2.717591e-19;2.220446e-16;-2.196259e-17;2.605295;2.220446e-16;-2.220446e-16;0
4.304455;-19.109987;2.632288;0;0;0;0;0;-1.110223e-16;2.156543e-17;0;0;0;0;4.041815e-18;-1.150641e-16;5.955297e-17;45;0;7.940396e-17;7.809155e-17;0;4.340266e-17;-2.717958e-19;-1.110223e-16;-4.367446e-17;2.607229;-1.110223e-16;1.110223e-16;0
5.917441;-19.109987;2.562366;0;0;0;0;0;-1.110223e-16;-2.713659e-19;0;0;0;0;6.632814e-22;-1.11023e-16;5.551181e-17;45;0;7.401575e-17;7.401553e-17;0;-4.681736e-23;-5.42685e-19;-1.110223e-16;-5.426382e-19;2.546406;-1.110223e-16;1.110223e-16;0
7.530427;-19.109987;2.436821;0;0;0;0;0;0;0;0;0;0;0;0;0;0;45;0;0;0;0;0;0;0;0;2.425371;0;0;0
9.143413;-19.109987;2.266346;0;0;0;0;-1.110223e-16;-1.110223e-16;9.630886e-18;0;0;0;0;-1.013914e-16;-1.206532e-16;9.630886e-18;45;0;1.284118e-17;7.484566e-17;-1.110223e-16;2.034192e-17;-1.080148e-18;-1.110223e-16;-2.142207e-17;2.260211;-2.220446e-16;2.220446e-16;0
10.756399;-19.109987;2.063369;0;0;0;0;0;2.220446e-16;1.192084e-17;0;0;0;0;2.226828e-16;-6.381566e-19;1.116605e-16;45;0;1.488806e-16;1.486684e-16;0;2.168699e-17;2.154694e-18;2.220446e-16;-1.95323e-17;2.057363;2.220446e-16;-2.220446e-16;0
12.369385;-19.109987;1.827848;0;0;0;0;0;-1.110223e-16;-1.073823e-18;0;0;0;0;1.038519e-20;-1.110327e-16;5.552153e-17;45;0;7.402871e-17;7.402525e-17;0;0;-2.147646e-18;-1.110223e-16;-2.147646e-18;1.818688;-1.110223e-16;1.110223e-16;0
13.982371;-19.109987;1.552266;0;0;0;0;0;0;1.084254e-17;0;0;0;0;1.084254e-17;-1.084254e-17;1.084254e-17;45;0;1.445672e-17;1.251988e-17;0;2.168508e-17;0;0;-2.168508e-17;1.538035;0;0;0
15.595357;-19.109987;1.222596;0;0;0;0;2.220446e-16;2.220446e-16;3.479789e-18;0;0;0;0;2.255244e-16;2.185648e-16;3.479789e-18;45;0;4.639719e-18;1.480843e-16;2.220446e-16;2.711283e-18;4.248295e-18;2.220446e-16;1.537013e-18;1.210828;4.440892e-16;-4.440892e-16;0
17.208343;-19.109987;0.845435;0;0;0;0;2.220446e-16;-1.110223e-16;1.114846e-17;0;0;0;0;2.224174e-16;-1.11395e-16;1.669062e-16;45;0;2.225416e-16;1.962476e-16;2.220446e-16;2.440704e-17;-2.110119e-18;-1.110223e-16;-2.651716e-17;0.833865;1.110223e-16;-1.110223e-16;0
18.821329;-19.109987;0.419989;0;0;0;0;0;2.220446e-16;-7.39992e-18;0;0;0;0;2.222909e-16;-2.463385e-19;1.112686e-16;45;0;1.483582e-16;1.482761e-16;0;-1.898841e-17;4.18857e-18;2.220446e-16;2.317698e-17;0.408285;2.220446e-16;-2.220446e-16;0
20.434315;-19.109987;-0.054046;0;0;0;0;2.220446e-16;-1.110223e-16;-1.157461e-17;0;0;0;0;2.224464e-16;-1.114241e-16;1.669352e-16;45;0;2.225803e-16;1.962805e-16;2.220446e-16;-1.899537e-17;-4.153853e-18;-1.110223e-16;1.484152e-17;-0.066827;1.110223e-16;-1.110223e-16;0
22.047301;-19.109987;-0.576454;0;0;0;0;-1.110223e-16;-1.110223e-16;-4.772588e-18;0;0;0;0;-1.062497e-16;-1.157949e-16;4.772588e-18;45;0;6.363451e-18;7.421975e-17;-1.110223e-16;-5.429278e-18;-4.115899e-18;-1.110223e-16;1.313379e-18;-0.59205;-2.220446e-16;2.220446e-16;0
23.660287;-19.109987;-1.150587;0;0;0;0;0;0;1.086308e-17;0;0;0;0;1.086308e-17;-1.086308e-17;1.086308e-17;45;0;1.44841e-17;1.25436e-17;0;2.172616e-17;0;0;-2.172616e-17;-1.167716;0;0;0
25.273273;-19.109987;-1.776887;0;0;0;0;0;-1.110223e-16;1.971428e-17;0;0;0;0;3.39675e-18;-1.144191e-16;5.89079e-17;45;0;7.854387e-17;7.743645e-17;0;4.345898e-17;-4.030419e-18;-1.110223e-16;-4.74894e-17;-1.794654;-1.110223e-16;1.110223e-16;0
26.886259;-19.109987;-2.45737;0;0;0;0;-1.110223e-16;2.220446e-16;1.285599e-17;0;0;0;0;2.225401e-16;-1.115178e-16;1.670289e-16;45;0;2.227053e-16;1.963868e-16;-1.110223e-16;2.172851e-17;3.983469e-18;2.220446e-16;-1.774504e-17;-2.473507;1.110223e-16;-1.110223e-16;0
28.499246;-19.109987;-3.189264;0;0;0;0;-1.110223e-16;0;2.716004e-18;0;0;0;0;6.640349e-20;-1.110887e-16;5.557756e-17;45;0;7.410341e-17;7.408128e-17;-1.110223e-16;5.432008e-18;0;0;-5.432008e-18;-3.204662;-1.110223e-16;1.110223e-16;0
30.112232;-19.109987;-3.971809;0;0;0;0;2.220446e-16;2.220446e-16;1.746181e-17;0;0;0;0;2.395064e-16;2.045828e-16;1.746181e-17;45;0;2.328241e-17;1.493966e-16;2.220446e-16;2.716093e-17;7.762684e-18;2.220446e-16;-1.939825e-17;-3.991134;4.440892e-16;-4.440892e-16;0
31.725218;-19.109987;-4.81526;0;0;0;0;-1.110223e-16;-1.110223e-16;-4.625477e-18;0;0;0;0;-1.063968e-16;-1.156478e-16;4.625477e-18;45;0;6.167303e-18;7.420733e-17;-1.110223e-16;-5.433282e-18;-3.817672e-18;-1.110223e-16;1.615609e-18;-4.838006;-2.220446e-16;2.220446e-16;0
33.338204;-19.109987;-5.727372;0;0;0;0;-1.110223e-16;-1.110223e-16;-1.546074e-17;0;0;0;0;-9.556156e-17;-1.26483e-16;1.546074e-17;45;0;2.061432e-17;7.613746e-17;-1.110223e-16;-2.717915e-17;-3.742333e-18;-1.110223e-16;2.343682e-17;-5.755031;-2.220446e-16;2.220446e-16;0
34.95119;-19.109987;-6.721188;0;0;0;0;0;-1.110223e-16;-3.071485e-17;0;0;0;0;7.93087e-18;-1.189532e-16;6.344202e-17;45;0;8.458936e-17;8.207357e-17;0;-5.619688e-17;-5.232825e-18;-1.110223e-16;5.096405e-17;-6.721723;-1.110223e-16;1.110223e-16;0
-42.47214;-20.722973;-16.656151;0;0;0;0;-1.110223e-16;2.220446e-16;-1.412349e-18;0;0;0;0;2.220506e-16;-1.110283e-16;1.665394e-16;45;0;2.220526e-16;1.958317e-16;-1.110223e-16;1.003008e-17;-1.285478e-17;2.220446e-16;-2.288486e-17;-16.652361;1.110223e-16;-1.110223e-16;0
-40.859154;-20.722973;-15.000774;0;0;0;0;0;-1.110223e-16;9.716165e-18;0;0;0;0;8.438998e-19;-1.118662e-16;5.635505e-17;45;0;7.514007e-17;7.486035e-17;0;1.634039e-17;3.091938e-18;-1.110223e-16;-1.324846e-17;-15.038449;-1.110223e-16;1.110223e-16;0
-39.246168;-20.722973;-13.466952;0;0;0;0;-2.220446e-16;0;3.540507e-17;0;0;0;0;5.508684e-18;-2.275533e-16;1.16531e-16;45;0;1.553747e-16;1.535714e-16;-2.220446e-16;7.081014e-17;0;0;-7.081014e-17;-13.496682;-2.220446e-16;2.220446e-16;0
-37.633182;-20.722973;-12.023706;0;0;0;0;2.220446e-16;2.220446e-16;3.798214e-18;0;0;0;0;2.258428e-16;2.182464e-16;3.798214e-18;45;0;5.064285e-18;1.480947e-16;2.220446e-16;1.089426e-17;-3.297834e-18;2.220446e-16;-1.41921e-17;-12.063876;4.440892e-16;-4.440892e-16;0
-36.020196;-20.722973;-10.691467;0;0;0;0;0;0;0;0;0;0;0;0;0;0;45;0;0;0;0;0;0;0;0;-10.724153;0;0;0
-34.40721;-20.722973;-9.442509;0;0;0;0;2.220446e-16;0;-2.721068e-18;0;0;0;0;2.22078e-16;-3.33406e-20;1.110556e-16;45;0;1.480742e-16;1.480631e-16;2.220446e-16;-5.442137e-18;0;0;5.442137e-18;-9.478468;2.220446e-16;-2.220446e-16;0
-32.794224;-20.722973;-8.288947;0;0;0;0;0;0;2.176046e-17;0;0;0;0;2.176046e-17;-2.176046e-17;2.176046e-17;45;0;2.901394e-17;2.512681e-17;0;4.352091e-17;0;0;-4.352091e-17;-8.324426;0;0;0
-31.181238;-20.722973;-7.237336;0;0;0;0;-1.110223e-16;2.220446e-16;-9.514732e-19;0;0;0;0;2.220473e-16;-1.11025e-16;1.665362e-16;45;0;2.220482e-16;1.95828e-16;-1.110223e-16;5.43905e-18;-7.341996e-18;2.220446e-16;-1.278105e-17;-7.256322;1.110223e-16;-1.110223e-16;0
-29.568251;-20.722973;-6.24506;0;0;0;0;0;-1.110223e-16;1.865653e-18;0;0;0;0;3.134217e-20;-1.110536e-16;5.554249e-17;45;0;7.405666e-17;7.404621e-17;0;0;3.731307e-18;-1.110223e-16;3.731307e-18;-6.262191;-1.110223e-16;1.110223e-16;0
-27.955265;-20.722973;-5.30838;0;0;0;0;2.220446e-16;-1.110223e-16;-8.183677e-19;0;0;0;0;2.220466e-16;-1.110243e-16;1.665355e-16;45;0;2.220473e-16;1.958272e-16;2.220446e-16;-5.435965e-18;3.799229e-18;-1.110223e-16;9.235194e-18;-5.333319;1.110223e-16;-1.110223e-16;0
-26.342279;-20.722973;-4.448994;0;0;0;0;2.220446e-16;0;2.173751e-17;0;0;0;0;2.241526e-16;-2.108025e-18;1.131303e-16;45;0;1.508404e-16;1.501427e-16;2.220446e-16;4.347502e-17;0;0;-4.347502e-17;-4.468535;2.220446e-16;-2.220446e-16;0
-24.729293;-20.722973;-3.64808;0;0;0;0;0;-1.110223e-16;-8.909219e-18;0;0;0;0;7.103935e-19;-1.117327e-16;5.622155e-17;45;0;7.496206e-17;7.472638e-17;0;-2.173697e-17;3.918537e-18;-1.110223e-16;2.565551e-17;-3.665388;-1.110223e-16;1.110223e-16;0
-23.116307;-20.722973;-2.900479;0;0;0;0;0;0;-2.173984e-17;0;0;0;0;2.173984e-17;-2.173984e-17;2.173984e-17;45;0;2.898646e-17;2.510301e-17;0;-4.347968e-17;0;0;4.347968e-17;-2.916057;0;0;0
-21.503321;-20.722973;-2.20626;0;0;0;0;0;2.220446e-16;-2.005961e-18;0;0;0;0;2.220627e-16;-1.812047e-20;1.110404e-16;45;0;1.480539e-16;1.480479e-16;0;0;-4.011923e-18;2.220446e-16;-4.011923e-18;-2.21658;2.220446e-16;-2.220446e-16;0
-19.890335;-20.722973;-1.552479;0;0;0;0;0;0;1.086714e-17;0;0;0;0;1.086714e-17;-1.086714e-17;1.086714e-17;45;0;1.448952e-17;1.254829e-17;0;2.173427e-17;0;0;-2.173427e-17;-1.57608;0;0;0
-18.277349;-20.722973;-0.975481;0;0;0;0;0;2.220446e-16;8.807664e-18;0;0;0;0;2.223934e-16;-3.488186e-19;1.113711e-16;45;0;1.484948e-16;1.483787e-16;0;2.172682e-17;-4.111488e-18;2.220446e-16;-2.583831e-17;-0.989228;2.220446e-16;-2.220446e-16;0
-16.664363;-20.722973;-0.437624;0;0;0;0;0;0;-1.08632e-17;0;0;0;0;1.08632e-17;-1.08632e-17;1.08632e-17;45;0;1.448426e-17;1.254374e-17;0;-2.17264e-17;0;0;2.17264e-17;-0.445198;0;0;0
-15.051377;-20.722973;0.0847;0;0;0;0;0;2.220446e-16;8.769193e-18;0;0;0;0;2.223904e-16;-3.457827e-19;1.113681e-16;45;0;1.484908e-16;1.483756e-16;0;2.172426e-17;-4.18587e-18;2.220446e-16;-2.591013e-17;0.036357;2.220446e-16;-2.220446e-16;0
-13.438391;-20.722973;0.467806;0;0;0;0;0;0;0;0;0;0;0;0;0;0;45;0;0;0;0;0;0;0;0;0.442932;0;0;0
-11.825405;-20.722973;0.778214;0;0;0;0;-1.110223e-16;0;1.357292e-18;0;0;0;0;1.659095e-20;-1.110389e-16;5.552774e-17;45;0;7.403699e-17;7.403146e-17;-1.110223e-16;2.714583e-18;0;0;-2.714583e-18;0.791665;-1.110223e-16;1.110223e-16;0
-10.212419;-20.722973;1.129867;0;0;0;0;2.220446e-16;0;-1.221672e-17;0;0;0;0;2.227147e-16;-6.701315e-19;1.116924e-16;45;0;1.489232e-16;1.487004e-16;2.220446e-16;-2.443343e-17;0;0;2.443343e-17;1.131215;2.220446e-16;-2.220446e-16;0
-8.599433;-20.722973;1.49078;0;0;0;0;0;-1.110223e-16;1.063584e-18;0;0;0;0;1.01881e-20;-1.110325e-16;5.552134e-17;45;0;7.402845e-17;7.402505e-17;0;0;2.127167e-18;-1.110223e-16;2.127167e-18;1.475794;-1.110223e-16;1.110223e-16;0
-6.986447;-20.722973;1.814716;0;0;0;0;2.220446e-16;0;-2.239262e-17;0;0;0;0;2.242803e-16;-2.235727e-18;1.13258e-16;45;0;1.510107e-16;1.50271e-16;2.220446e-16;-4.478525e-17;0;0;4.478525e-17;1.787683;2.220446e-16;-2.220446e-16;0
-5.373461;-20.722973;2.062279;0;0;0;0;0;2.220446e-16;-1.078359e-18;0;0;0;0;2.220498e-16;-5.236925e-21;1.110275e-16;45;0;1.480367e-16;1.48035e-16;0;3.063056e-22;-2.157025e-18;2.220446e-16;-2.157331e-18;2.034694;2.220446e-16;-2.220446e-16;0
-3.760475;-20.722973;2.222681;0;0;0;0;2.220446e-16;0;-3.392311e-19;0;0;0;0;2.220451e-16;-5.182627e-22;1.110228e-16;45;0;1.480304e-16;1.480303e-16;2.220446e-16;-6.784621e-19;0;0;6.784621e-19;2.204441;2.220446e-16;-2.220446e-16;0
-2.147489;-20.722973;2.314693;0;0;0;0;-1.110223e-16;0;-3.165376e-24;0;0;0;0;8.628166e-32;-1.110223e-16;5.551115e-17;45;0;7.401487e-17;7.401487e-17;-1.110223e-16;-6.330752e-24;0;0;6.330752e-24;2.309902;-1.110223e-16;1.110223e-16;0
-0.534503;-20.722973;2.373326;0;0;0;0;0;2.220446e-16;1.058812e-17;0;0;0;0;2.225484e-16;-5.037481e-19;1.11526e-16;45;0;1.487014e-16;1.485338e-16;0;2.171953e-17;-5.432865e-19;2.220446e-16;-2.226282e-17;2.381891;2.220446e-16;-2.220446e-16;0
1.078483;-20.722973;2.437789;0;0;0;0;2.220446e-16;0;-1.102917e-17;0;0;0;0;2.225911e-16;-5.464843e-19;1.115688e-16;45;0;1.487584e-16;1.485766e-16;2.220446e-16;-2.205833e-17;0;0;2.205833e-17;2.444244;2.220446e-16;-2.220446e-16;0
2.691469;-20.722973;2.505152;0;0;0;0;0;0;-1.085761e-17;0;0;0;0;1.085761e-17;-1.085761e-17;1.085761e-17;45;0;1.447681e-17;1.253729e-17;0;-2.171522e-17;0;0;2.171522e-17;2.491673;0;0;0
4.304455;-20.722973;2.521807;0;0;0;0;2.220446e-16;2.220446e-16;-1.063558e-17;0;0;0;0;2.326802e-16;2.11409e-16;1.063558e-17;45;0;1.418077e-17;1.485383e-16;2.220446e-16;-2.154296e-17;2.718041e-19;2.220446e-16;2.181477e-17;2.495591;4.440892e-16;-4.440892e-16;0
5.917441;-20.722973;2.456406;0;0;0;0;2.220446e-16;0;3.39251e-19;0;0;0;0;2.220451e-16;-5.183237e-22;1.110228e-16;45;0;1.480304e-16;1.480303e-16;2.220446e-16;6.78502e-19;0;0;-6.78502e-19;2.437005;2.220446e-16;-2.220446e-16;0
7.530427;-20.722973;2.332189;0;0;0;0;0;-1.110223e-16;-1.174124e-17;0;0;0;0;1.228118e-18;-1.122504e-16;5.673927e-17;45;0;7.565236e-17;7.524632e-17;0;-2.23997e-17;-1.08278e-18;-1.110223e-16;2.131692e-17;2.316355;-1.110223e-16;1.110223e-16;0
9.143413;-20.722973;2.156635;0;0;0;0;-1.110223e-16;0;0;0;0;0;0;0;-1.110223e-16;5.551115e-17;45;0;7.401487e-17;7.401487e-17;-1.110223e-16;0;0;0;0;2.148654;-1.110223e-16;1.110223e-16;0
10.756399;-20.722973;1.946245;0;0;0;0;0;-1.110223e-16;-5.38453e-19;0;0;0;0;2.61141e-21;-1.110249e-16;5.551377e-17;45;0;7.401835e-17;7.401748e-17;0;0;-1.076906e-18;-1.110223e-16;-1.076906e-18;1.941598;-1.110223e-16;1.110223e-16;0
12.369385;-20.722973;1.705851;0;0;0;0;-1.110223e-16;0;-6.784319e-19;0;0;0;0;4.145588e-21;-1.110264e-16;5.551529e-17;45;0;7.40204e-17;7.401901e-17;-1.110223e-16;-1.356864e-18;0;0;1.356864e-18;1.699741;-1.110223e-16;1.110223e-16;0
13.982371;-20.722973;1.430406;0;0;0;0;-1.110223e-16;0;-1.356731e-18;0;0;0;0;1.657724e-20;-1.110389e-16;5.552773e-17;45;0;7.403697e-17;7.403145e-17;-1.110223e-16;-2.713462e-18;0;0;2.713462e-18;1.41784;-1.110223e-16;1.110223e-16;0
15.595357;-20.722973;1.102861;0;0;0;0;2.220446e-16;0;-9.498824e-18;0;0;0;0;2.224502e-16;-4.056083e-19;1.114279e-16;45;0;1.485705e-16;1.484355e-16;2.220446e-16;-1.899765e-17;0;0;1.899765e-17;1.090861;2.220446e-16;-2.220446e-16;0
17.208343;-20.722973;0.727651;0;0;0;0;0;-1.110223e-16;-1.055253e-18;0;0;0;0;1.002914e-20;-1.110323e-16;5.552118e-17;45;0;7.402824e-17;7.40249e-17;0;0;-2.110506e-18;-1.110223e-16;-2.110506e-18;0.714621;-1.110223e-16;1.110223e-16;0
18.821329;-20.722973;0.30363;0;0;0;0;0;2.220446e-16;2.094672e-18;0;0;0;0;2.220644e-16;-1.975847e-20;1.110421e-16;45;0;1.480561e-16;1.480495e-16;0;0;4.189345e-18;2.220446e-16;4.189345e-18;0.289851;2.220446e-16;-2.220446e-16;0
20.434315;-20.722973;-0.169747;0;0;0;0;0;2.220446e-16;-8.783418e-18;0;0;0;0;2.223915e-16;-3.469037e-19;1.113692e-16;45;0;1.484923e-16;1.483768e-16;0;-2.172147e-17;4.154634e-18;2.220446e-16;2.58761e-17;-0.184286;2.220446e-16;-2.220446e-16;0
22.047301;-20.722973;-0.691447;0;0;0;0;-1.110223e-16;2.220446e-16;7.008529e-19;0;0;0;0;2.220461e-16;-1.110238e-16;1.665349e-16;45;0;2.220466e-16;1.958266e-16;-1.110223e-16;-2.714895e-18;4.116601e-18;2.220446e-16;6.831497e-18;-0.708611;1.110223e-16;-1.110223e-16;0
23.660287;-20.722973;-1.264755;0;0;0;0;-1.110223e-16;-1.110223e-16;8.824149e-18;0;0;0;0;-1.021982e-16;-1.198465e-16;8.824149e-18;45;0;1.176553e-17;7.471292e-17;-1.110223e-16;2.172335e-17;-4.075051e-18;-1.110223e-16;-2.57984e-17;-1.283681;-2.220446e-16;2.220446e-16;0
25.273273;-20.722973;-1.890676;0;0;0;0;0;0;0;0;0;0;0;0;0;0;45;0;0;0;0;0;0;0;0;-1.911359;0;0;0
26.886259;-20.722973;-2.573674;0;0;0;0;0;0;-1.086442e-17;0;0;0;0;1.086442e-17;-1.086442e-17;1.086442e-17;45;0;1.448589e-17;1.254515e-17;0;-2.172883e-17;0;0;2.172883e-17;-2.592086;0;0;0
28.499246;-20.722973;-3.309076;0;0;0;0;-1.110223e-16;0;1.901442e-17;0;0;0;0;3.166238e-18;-1.141885e-16;5.867739e-17;45;0;7.823652e-17;7.720275e-17;-1.110223e-16;3.802883e-17;0;0;-3.802883e-17;-3.325591;-1.110223e-16;1.110223e-16;0
30.112232;-20.722973;-4.094261;0;0;0;0;-1.110223e-16;0;2.444969e-17;0;0;0;0;5.14588e-18;-1.161682e-16;6.065703e-17;45;0;8.087604e-17;7.921648e-17;-1.110223e-16;4.889939e-17;0;0;-4.889939e-17;-4.113457;-1.110223e-16;1.110223e-16;0
31.725218;-20.722973;-4.939185;0;0;0;0;0;0;-1.086851e-17;0;0;0;0;1.086851e-17;-1.086851e-17;1.086851e-17;45;0;1.449135e-17;1.254988e-17;0;-2.173703e-17;0;0;2.173703e-17;-4.959401;0;0;0
33.338204;-20.722973;-5.846258;0;0;0;0;2.220446e-16;0;1.358918e-17;0;0;0;0;2.228732e-16;-8.285692e-19;1.118509e-16;45;0;1.491345e-16;1.488591e-16;2.220446e-16;2.717836e-17;0;0;-2.717836e-17;-5.876448;2.220446e-16;-2.220446e-16;0
34.95119;-20.722973;-6.844978;0;0;0;0;2.220446e-16;0;1.90005e-17;0;0;0;0;2.236588e-16;-1.614152e-18;1.126365e-16;45;0;1.501819e-16;1.496468e-16;2.220446e-16;3.800101e-17;0;0;-3.800101e-17;-6.844588;2.220446e-16;-2.220446e-16;0
-42.47214;-22.335959;-16.768643;0;0;0;0;-1.110223e-16;0;4.858359e-18;0;0;0;0;2.121972e-19;-1.112345e-16;5.572335e-17;45;0;7.42978e-17;7.422716e-17;-1.110223e-16;9.716718e-18;0;0;-9.716718e-18;-16.761902;-1.110223e-16;1.110223e-16;0
-40.859154;-22.335959;-15.096722;0;0;0;0;0;2.220446e-16;-3.086025e-18;0;0;0;0;2.220875e-16;-4.288197e-20;1.110652e-16;45;0;1.480869e-16;1.480726e-16;0;0;-6.172049e-18;2.220446e-16;-6.172049e-18;-15.142479;2.220446e-16;-2.220446e-16;0
-39.246168;-22.335959;-13.561362;0;0;0;0;0;0;-1.089264e-17;0;0;0;0;1.089264e-17;-1.089264e-17;1.089264e-17;45;0;1.452352e-17;1.257774e-17;0;-2.178528e-17;0;0;2.178528e-17;-13.596471;0;0;0
-37.633182;-22.335959;-12.119129;0;0;0;0;0;2.220446e-16;-1.419026e-17;0;0;0;0;2.229478e-16;-9.031868e-19;1.119255e-16;45;0;1.49234e-16;1.489338e-16;0;-2.17806e-17;-6.599926e-18;2.220446e-16;1.518067e-17;-12.16322;2.220446e-16;-2.220446e-16;0
-36.020196;-22.335959;-10.799214;0;0;0;0;2.220446e-16;-1.110223e-16;9.867224e-18;0;0;0;0;2.223367e-16;-1.113144e-16;1.668255e-16;45;0;2.22434e-16;1.961561e-16;2.220446e-16;1.633169e-17;3.402756e-18;-1.110223e-16;-1.292894e-17;-10.826382;1.110223e-16;-1.110223e-16;0
-34.40721;-22.335959;-9.562833;0;0;0;0;-1.110223e-16;0;2.449037e-17;0;0;0;0;5.162287e-18;-1.161846e-16;6.067344e-17;45;0;8.089792e-17;7.923323e-17;-1.110223e-16;4.898074e-17;0;0;-4.898074e-17;-9.585088;-1.110223e-16;1.110223e-16;0
-32.794224;-22.335959;-8.405598;0;0;0;0;-1.110223e-16;-1.110223e-16;4.512681e-18;0;0;0;0;-1.065096e-16;-1.15535e-16;4.512681e-18;45;0;6.016908e-18;7.419807e-17;-1.110223e-16;5.440675e-18;3.584686e-18;-1.110223e-16;-1.855989e-18;-8.433597;-2.220446e-16;2.220446e-16;0
-31.181238;-22.335959;-7.345948;0;0;0;0;0;-1.110223e-16;1.834167e-18;0;0;0;0;3.029348e-20;-1.110526e-16;5.554145e-17;45;0;7.405526e-17;7.404517e-17;0;0;3.668335e-18;-1.110223e-16;3.668335e-18;-7.364991;-1.110223e-16;1.110223e-16;0
-29.568251;-22.335959;-6.350753;0;0;0;0;2.220446e-16;0;2.175935e-17;0;0;0;0;2.241568e-16;-2.112223e-18;1.131345e-16;45;0;1.50846e-16;1.501469e-16;2.220446e-16;4.35187e-17;0;0;-4.35187e-17;-6.371144;2.220446e-16;-2.220446e-16;0
-27.955265;-22.335959;-5.421123;0;0;0;0;-1.110223e-16;2.220446e-16;1.169196e-17;0;0;0;0;2.224545e-16;-1.114322e-16;1.669434e-16;45;0;2.225912e-16;1.962898e-16;-1.110223e-16;2.718919e-17;-3.805279e-18;2.220446e-16;-3.099447e-17;-5.444986;1.110223e-16;-1.110223e-16;0
-26.342279;-22.335959;-4.570758;0;0;0;0;2.220446e-16;2.220446e-16;-4.651633e-18;0;0;0;0;2.266962e-16;2.17393e-16;4.651633e-18;45;0;6.202178e-18;1.481271e-16;2.220446e-16;-5.435624e-18;-3.867642e-18;2.220446e-16;1.567982e-18;-4.582453;4.440892e-16;-4.440892e-16;0
-24.729293;-22.335959;-3.764597;0;0;0;0;-1.110223e-16;0;2.717547e-18;0;0;0;0;6.647892e-20;-1.110888e-16;5.557763e-17;45;0;7.41035e-17;7.408136e-17;-1.110223e-16;5.435094e-18;0;0;-5.435094e-18;-3.778743;-1.110223e-16;1.110223e-16;0
-23.116307;-22.335959;-3.006728;0;0;0;0;-1.110223e-16;0;-8.154353e-18;0;0;0;0;5.957234e-19;-1.11618e-16;5.610687e-17;45;0;7.480917e-17;7.461139e-17;-1.110223e-16;-1.630871e-17;0;0;1.630871e-17;-3.025587;-1.110223e-16;1.110223e-16;0
-21.503321;-22.335959;-2.305782;0;0;0;0;0;0;0;0;0;0;0;0;0;0;45;0;0;0;0;0;0;0;0;-2.324004;0;0;0
-19.890335;-22.335959;-1.657497;0;0;0;0;0;2.220446e-16;-2.034376e-18;0;0;0;0;2.220632e-16;-1.863743e-20;1.110409e-16;45;0;1.480546e-16;1.480484e-16;0;0;-4.068753e-18;2.220446e-16;-4.068753e-18;-1.685105;2.220446e-16;-2.220446e-16;0
-18.277349;-22.335959;-1.090512;0;0;0;0;2.220446e-16;0;-1.357605e-18;0;0;0;0;2.220529e-16;-8.300232e-21;1.110306e-16;45;0;1.480408e-16;1.48038e-16;2.220446e-16;-2.71521e-18;0;0;2.71521e-18;-1.101654;2.220446e-16;-2.220446e-16;0
-16.664363;-22.335959;-0.554654;0;0;0;0;2.220446e-16;2.220446e-16;-4.779617e-18;0;0;0;0;2.268242e-16;2.17265e-16;4.779617e-18;45;0;6.372823e-18;1.481326e-16;2.220446e-16;-5.428953e-18;-4.130282e-18;2.220446e-16;1.298671e-18;-0.55891;4.440892e-16;-4.440892e-16;0
-15.051377;-22.335959;-0.026445;0;0;0;0;0;2.220446e-16;8.76688e-18;0;0;0;0;2.223902e-16;-3.456006e-19;1.113679e-16;45;0;1.484905e-16;1.483755e-16;0;2.171648e-17;-4.182722e-18;2.220446e-16;-2.589921e-17;-0.075073;2.220446e-16;-2.220446e-16;0
-13.438391;-22.335959;0.36064;0;0;0;0;0;0;0;0;0;0;0;0;0;0;45;0;0;0;0;0;0;0;0;0.33445;0;0;0
-11.825405;-22.335959;0.668352;0;0;0;0;0;2.220446e-16;9.796873e-18;0;0;0;0;2.22476e-16;-4.314115e-19;1.114537e-16;45;0;1.48605e-16;1.484614e-16;0;2.17243e-17;-2.130558e-18;2.220446e-16;-2.385486e-17;0.684437;2.220446e-16;-2.220446e-16;0
-10.212419;-22.335959;1.017426;0;0;0;0;-1.110223e-16;0;-9.502797e-18;0;0;0;0;8.075052e-19;-1.118298e-16;5.631866e-17;45;0;7.509154e-17;7.482383e-17;-1.110223e-16;-1.900559e-17;0;0;1.900559e-17;1.022709;-1.110223e-16;1.110223e-16;0
-8.599433;-22.335959;1.375653;0;0;0;0;0;0;0;0;0;0;0;0;0;0;45;0;0;0;0;0;0;0;0;1.364919;0;0;0
-6.986447;-22.335959;1.699917;0;0;0;0;-1.110223e-16;-1.110223e-16;-8.426706e-18;0;0;0;0;-1.025956e-16;-1.19449e-16;8.426706e-18;45;0;1.123561e-17;7.465173e-17;-1.110223e-16;-1.899394e-17;2.140526e-18;-1.110223e-16;2.113446e-17;1.675579;-2.220446e-16;2.220446e-16;0
-5.373461;-22.335959;1.953896;0;0;0;0;0;0;-1.08566e-17;0;0;0;0;1.08566e-17;-1.08566e-17;1.08566e-17;45;0;1.447547e-17;1.253613e-17;0;-2.171321e-17;0;0;2.171321e-17;1.924118;0;0;0
-3.760475;-22.335959;2.122338;0;0;0;0;-1.110223e-16;2.220446e-16;2.152059e-17;0;0;0;0;2.234294e-16;-1.124071e-16;1.679182e-16;45;0;2.23891e-16;1.973953e-16;-1.110223e-16;4.412486e-17;-1.083691e-18;2.220446e-16;-4.520855e-17;2.097126;1.110223e-16;-1.110223e-16;0
-2.147489;-22.335959;2.219056;0;0;0;0;0;-1.110223e-16;1.113631e-17;0;0;0;0;1.106031e-18;-1.121283e-16;5.661718e-17;45;0;7.548957e-17;7.512361e-17;0;2.172958e-17;5.430358e-19;-1.110223e-16;-2.118655e-17;2.205468;-1.110223e-16;1.110223e-16;0
-0.534503;-22.335959;2.279985;0;0;0;0;-1.110223e-16;-1.110223e-16;1.117119e-17;0;0;0;0;-9.985111e-17;-1.221935e-16;1.117119e-17;45;0;1.489493e-17;7.513052e-17;-1.110223e-16;2.207075e-17;2.716418e-19;-1.110223e-16;-2.179911e-17;2.278428;-2.220446e-16;2.220446e-16;0
1.078483;-22.335959;2.342228;0;0;0;0;2.220446e-16;0;2.155847e-17;0;0;0;0;2.241184e-16;-2.073759e-18;1.130961e-16;45;0;1.507947e-16;1.501083e-16;2.220446e-16;4.311694e-17;0;0;-4.311694e-17;2.33999;2.220446e-16;-2.220446e-16;0
2.691469;-22.335959;2.403539;0;0;0;0;2.220446e-16;-1.110223e-16;-3.378351e-20;0;0;0;0;2.220446e-16;-1.110223e-16;1.665335e-16;45;0;2.220446e-16;1.958249e-16;2.220446e-16;-3.393401e-19;2.717731e-19;-1.110223e-16;6.111132e-19;2.384456;1.110223e-16;-1.110223e-16;0
4.304455;-22.335959;2.413908;0;0;0;0;-1.110223e-16;0;-2.179246e-17;0;0;0;0;4.1244e-18;-1.151467e-16;5.963555e-17;45;0;7.951407e-17;7.817554e-17;-1.110223e-16;-4.358491e-17;0;0;4.358491e-17;2.385477;-1.110223e-16;1.110223e-16;0
5.917441;-22.335959;2.347409;0;0;0;0;-1.110223e-16;-1.110223e-16;-6.105428e-19;0;0;0;0;-1.104118e-16;-1.116328e-16;6.105428e-19;45;0;8.140571e-19;7.401823e-17;-1.110223e-16;-6.782929e-19;-5.427927e-19;-1.110223e-16;1.355001e-19;2.327124;-2.220446e-16;2.220446e-16;0
7.530427;-22.335959;2.229851;0;0;0;0;0;2.220446e-16;8.808595e-19;0;0;0;0;2.220481e-16;-3.494349e-21;1.110258e-16;45;0;1.480344e-16;1.480332e-16;0;6.786417e-19;1.083077e-18;2.220446e-16;4.044357e-19;2.20936;2.220446e-16;-2.220446e-16;0
9.143413;-22.335959;2.059169;0;0;0;0;0;2.220446e-16;5.39903e-19;0;0;0;0;2.220459e-16;-1.31277e-21;1.110236e-16;45;0;1.480315e-16;1.480311e-16;0;0;1.079806e-18;2.220446e-16;1.079806e-18;2.043702;2.220446e-16;-2.220446e-16;0
10.756399;-22.335959;1.847263;0;0;0;0;0;0;-1.086388e-17;0;0;0;0;1.086388e-17;-1.086388e-17;1.086388e-17;45;0;1.448517e-17;1.254452e-17;0;-2.172775e-17;0;0;2.172775e-17;1.83484;0;0;0
12.369385;-22.335959;1.601656;0;0;0;0;-1.110223e-16;-1.110223e-16;-1.261321e-17;0;0;0;0;-9.84091e-17;-1.236355e-16;1.261321e-17;45;0;1.681761e-17;7.543424e-17;-1.110223e-16;-2.308001e-17;-2.146409e-18;-1.110223e-16;2.09336e-17;1.589521;-2.220446e-16;2.220446e-16;0
13.982371;-22.335959;1.322761;0;0;0;0;0;0;-1.08593e-17;0;0;0;0;1.08593e-17;-1.08593e-17;1.08593e-17;45;0;1.447907e-17;1.253924e-17;0;-2.171861e-17;0;0;2.171861e-17;1.305222;0;0;0
15.595357;-22.335959;0.994314;0;0;0;0;-1.110223e-16;0;-2.307608e-17;0;0;0;0;4.605348e-18;-1.156276e-16;6.01165e-17;45;0;8.015533e-17;7.866517e-17;-1.110223e-16;-4.615217e-17;0;0;4.615217e-17;0.977788;-1.110223e-16;1.110223e-16;0
17.208343;-22.335959;0.619455;0;0;0;0;0;0;-1.086034e-17;0;0;0;0;1.086034e-17;-1.086034e-17;1.086034e-17;45;0;1.448045e-17;1.254044e-17;0;-2.172068e-17;0;0;2.172068e-17;0.60192;0;0;0
18.821329;-22.335959;0.195657;0;0;0;0;0;0;-1.086128e-17;0;0;0;0;1.086128e-17;-1.086128e-17;1.086128e-17;45;0;1.448171e-17;1.254153e-17;0;-2.172256e-17;0;0;2.172256e-17;0.177163;0;0;0
20.434315;-22.335959;-0.279369;0;0;0;0;2.220446e-16;0;1.357462e-18;0;0;0;0;2.220529e-16;-8.298488e-21;1.110306e-16;45;0;1.480408e-16;1.48038e-16;2.220446e-16;2.714924e-18;0;0;-2.714924e-18;-0.298164;2.220446e-16;-2.220446e-16;0
22.047301;-22.335959;-0.806786;0;0;0;0;2.220446e-16;0;-8.145003e-18;0;0;0;0;2.22343e-16;-2.983727e-19;1.113207e-16;45;0;1.484276e-16;1.483282e-16;2.220446e-16;-1.629001e-17;0;0;1.629001e-17;-0.824599;2.220446e-16;-2.220446e-16;0
23.660287;-22.335959;-1.384307;0;0;0;0;0;0;0;0;0;0;0;0;0;0;45;0;0;0;0;0;0;0;0;-1.401748;0;0;0
25.273273;-22.335959;-2.011226;0;0;0;0;2.220446e-16;-1.110223e-16;-1.015948e-17;0;0;0;0;2.223542e-16;-1.113319e-16;1.668431e-16;45;0;2.224574e-16;1.96176e-16;2.220446e-16;-1.628998e-17;-4.028975e-18;-1.110223e-16;1.226101e-17;-2.030461;1.110223e-16;-1.110223e-16;0
26.886259;-22.335959;-2.692748;0;0;0;0;0;0;-2.172476e-17;0;0;0;0;2.172476e-17;-2.172476e-17;2.172476e-17;45;0;2.896634e-17;2.508559e-17;0;-4.344951e-17;0;0;4.344951e-17;-2.711563;0;0;0
28.499246;-22.335959;-3.427856;0;0;0;0;0;-1.110223e-16;-1.283131e-17;0;0;0;0;1.46367e-18;-1.12486e-16;5.697482e-17;45;0;7.596643e-17;7.548327e-17;0;-2.173004e-17;-3.932569e-18;-1.110223e-16;1.779747e-17;-3.445477;-1.110223e-16;1.110223e-16;0
30.112232;-22.335959;-4.214261;0;0;0;0;0;0;1.086723e-17;0;0;0;0;1.086723e-17;-1.086723e-17;1.086723e-17;45;0;1.448964e-17;1.25484e-17;0;2.173446e-17;0;0;-2.173446e-17;-4.23403;0;0;0
31.725218;-22.335959;-5.06014;0;0;0;0;-1.110223e-16;2.220446e-16;-7.048837e-18;0;0;0;0;2.221937e-16;-1.111714e-16;1.666826e-16;45;0;2.222434e-16;1.95994e-16;-1.110223e-16;-2.173844e-17;7.640767e-18;2.220446e-16;2.937921e-17;-5.079722;1.110223e-16;-1.110223e-16;0
33.338204;-22.335959;-5.966058;0;0;0;0;-1.110223e-16;-1.110223e-16;-2.633299e-17;0;0;0;0;-8.468931e-17;-1.373553e-16;2.633299e-17;45;0;3.511066e-17;8.001731e-17;-1.110223e-16;-4.892409e-17;-3.741896e-18;-1.110223e-16;4.51822e-17;-5.997121;-2.220446e-16;2.220446e-16;0
34.95119;-22.335959;-6.967597;0;0;0;0;2.220446e-16;-1.110223e-16;1.060659e-17;0;0;0;0;2.22382e-16;-1.113597e-16;1.668709e-16;45;0;2.224945e-16;1.962076e-16;2.220446e-16;5.870496e-17;-3.749178e-17;-1.110223e-16;-9.619674e-17;-6.967639;1.110223e-16;-1.110223e-16;0
-42.47214;-23.948945;-16.86091;0;0;0;0;0;0;0;0;0;0;0;0;0;0;45;0;0;0;0;0;0;0;0;-16.863655;0;0;0
-40.859154;-23.948945;-15.200256;0;0;0;0;0;0;1.089364e-17;0;0;0;0;1.089364e-17;-1.089364e-17;1.089364e-17;45;0;1.452485e-17;1.257889e-17;0;2.178728e-17;0;0;-2.178728e-17;-15.24501;0;0;0
-39.246168;-23.948945;-13.670547;0;0;0;0;0;2.220446e-16;-1.408762e-17;0;0;0;0;2.229348e-16;-8.902196e-19;1.119125e-16;45;0;1.492167e-16;1.489208e-16;0;-2.1782e-17;-6.393231e-18;2.220446e-16;1.538877e-17;-13.700181;2.220446e-16;-2.220446e-16;0
-37.633182;-23.948945;-12.228792;0;0;0;0;2.220446e-16;0;8.167749e-18;0;0;0;0;2.223446e-16;-3.000393e-19;1.113223e-16;45;0;1.484298e-16;1.483299e-16;2.220446e-16;1.63355e-17;0;0;-1.63355e-17;-12.268423;2.220446e-16;-2.220446e-16;0
-36.020196;-23.948945;-10.907808;0;0;0;0;0;2.220446e-16;7.487139e-18;0;0;0;0;2.222968e-16;-2.521731e-19;1.112745e-16;45;0;1.48366e-16;1.48282e-16;0;2.177579e-17;-6.801515e-18;2.220446e-16;-2.857731e-17;-10.931933;2.220446e-16;-2.220446e-16;0
-34.40721;-23.948945;-9.661978;0;0;0;0;0;0;0;0;0;0;0;0;0;0;45;0;0;0;0;0;0;0;0;-9.69093;0;0;0
-32.794224;-23.948945;-8.505441;0;0;0;0;0;0;0;0;0;0;0;0;0;0;45;0;0;0;0;0;0;0;0;-8.540009;0;0;0
-31.181238;-23.948945;-7.451784;0;0;0;0;0;0;1.088142e-17;0;0;0;0;1.088142e-17;-1.088142e-17;1.088142e-17;45;0;1.450856e-17;1.256478e-17;0;2.176285e-17;0;0;-2.176285e-17;-7.471488;0;0;0
-29.568251;-23.948945;-6.454047;0;0;0;0;0;0;-1.088047e-17;0;0;0;0;1.088047e-17;-1.088047e-17;1.088047e-17;45;0;1.450729e-17;1.256368e-17;0;-2.176094e-17;0;0;2.176094e-17;-6.477326;0;0;0
-27.955265;-23.948945;-5.525864;0;0;0;0;2.220446e-16;0;-2.175861e-17;0;0;0;0;2.241567e-16;-2.112081e-18;1.131344e-16;45;0;1.508458e-16;1.501468e-16;2.220446e-16;-4.351721e-17;0;0;4.351721e-17;-5.551297;2.220446e-16;-2.220446e-16;0
-26.342279;-23.948945;-4.679895;0;0;0;0;-1.110223e-16;0;2.719327e-18;0;0;0;0;6.656597e-20;-1.110889e-16;5.557772e-17;45;0;7.410362e-17;7.408144e-17;-1.110223e-16;5.438653e-18;0;0;-5.438653e-18;-4.690306;-1.110223e-16;1.110223e-16;0
-24.729293;-23.948945;-3.874384;0;0;0;0;-1.110223e-16;-1.110223e-16;-1.707433e-17;0;0;0;0;-9.394797e-17;-1.280966e-16;1.707433e-17;45;0;2.276578e-17;7.659577e-17;-1.110223e-16;-3.806181e-17;3.91315e-18;-1.110223e-16;4.197496e-17;-3.887304;-2.220446e-16;2.220446e-16;0
-23.116307;-23.948945;-3.114774;0;0;0;0;-1.110223e-16;0;-8.154337e-18;0;0;0;0;5.957211e-19;-1.11618e-16;5.610687e-17;45;0;7.480916e-17;7.461138e-17;-1.110223e-16;-1.630867e-17;0;0;1.630867e-17;-3.132489;-1.110223e-16;1.110223e-16;0
-21.503321;-23.948945;-2.409201;0;0;0;0;0;0;0;0;0;0;0;0;0;0;45;0;0;0;0;0;0;0;0;-2.429897;0;0;0
-19.890335;-23.948945;-1.762831;0;0;0;0;0;0;1.222654e-17;0;0;0;0;1.222654e-17;-1.222654e-17;1.222654e-17;45;0;1.630206e-17;1.411799e-17;0;2.445309e-17;0;0;-2.445309e-17;-1.792622;0;0;0
-18.277349;-23.948945;-1.205906;0;0;0;0;-1.110223e-16;2.220446e-16;-3.329362e-17;0;0;0;0;2.253401e-16;-1.143178e-16;1.698289e-16;45;0;2.264385e-16;1.995629e-16;-1.110223e-16;-6.24672e-17;-4.120039e-18;2.220446e-16;5.834716e-17;-1.213082;1.110223e-16;-1.110223e-16;0
-16.664363;-23.948945;-0.677903;0;0;0;0;0;0;1.086039e-17;0;0;0;0;1.086039e-17;-1.086039e-17;1.086039e-17;45;0;1.448052e-17;1.25405e-17;0;2.172079e-17;0;0;-2.172079e-17;-0.673376;0;0;0
-15.051377;-23.948945;-0.146368;0;0;0;0;0;0;0;0;0;0;0;0;0;0;45;0;0;0;0;0;0;0;0;-0.188908;0;0;0
-13.438391;-23.948945;0.254187;0;0;0;0;-1.110223e-16;2.220446e-16;2.951882e-19;0;0;0;0;2.220449e-16;-1.110226e-16;1.665337e-16;45;0;2.220449e-16;1.958252e-16;-1.110223e-16;2.713811e-18;-2.123434e-18;2.220446e-16;-4.837246e-18;0.223634;1.110223e-16;-1.110223e-16;0
-11.825405;-23.948945;0.568965;0;0;0;0;2.220446e-16;-1.110223e-16;1.192631e-17;0;0;0;0;2.224711e-16;-1.114488e-16;1.6696e-16;45;0;2.226133e-16;1.963086e-16;2.220446e-16;2.17224e-17;2.13022e-18;-1.110223e-16;-1.959218e-17;0.575973;1.110223e-16;-1.110223e-16;0
-10.212419;-23.948945;0.914479;0;0;0;0;0;0;0;0;0;0;0;0;0;0;45;0;0;0;0;0;0;0;0;0.913269;0;0;0
-8.599433;-23.948945;1.260642;0;0;0;0;0;0;0;0;0;0;0;0;0;0;45;0;0;0;0;0;0;0;0;1.253028;0;0;0
-6.986447;-23.948945;1.580793;0;0;0;0;-1.110223e-16;0;-1.08554e-17;0;0;0;0;1.051448e-18;-1.120737e-16;5.65626e-17;45;0;7.54168e-17;7.506877e-17;-1.110223e-16;-2.17108e-17;0;0;2.17108e-17;1.563072;-1.110223e-16;1.110223e-16;0
-5.373461;-23.948945;1.841535;0;0;0;0;0;-1.110223e-16;1.139447e-17;0;0;0;0;1.157376e-18;-1.121797e-16;5.666853e-17;45;0;7.555804e-17;7.517521e-17;0;2.171135e-17;1.077595e-18;-1.110223e-16;-2.063376e-17;1.814372;-1.110223e-16;1.110223e-16;0
-3.760475;-23.948945;2.018904;0;0;0;0;-1.110223e-16;0;-1.051832e-17;0;0;0;0;9.877251e-19;-1.1201e-16;5.649888e-17;45;0;7.533183e-17;7.500476e-17;-1.110223e-16;-2.103665e-17;0;0;2.103665e-17;1.991356;-1.110223e-16;1.110223e-16;0
-2.147489;-23.948945;2.118755;0;0;0;0;2.220446e-16;-1.110223e-16;-6.781629e-20;0;0;0;0;2.220446e-16;-1.110223e-16;1.665335e-16;45;0;2.220446e-16;1.95825e-16;2.220446e-16;-6.786343e-19;5.430018e-19;-1.110223e-16;1.221636e-18;2.10291;1.110223e-16;-1.110223e-16;0
-0.534503;-23.948945;2.179473;0;0;0;0;2.220446e-16;-1.110223e-16;1.019443e-19;0;0;0;0;2.220446e-16;-1.110223e-16;1.665335e-16;45;0;2.220447e-16;1.95825e-16;2.220446e-16;-3.39386e-19;5.432746e-19;-1.110223e-16;8.826607e-19;2.177628;1.110223e-16;-1.110223e-16;0
1.078483;-23.948945;2.240545;0;0;0;0;2.220446e-16;-1.110223e-16;-3.388453e-20;0;0;0;0;2.220446e-16;-1.110223e-16;1.665335e-16;45;0;2.220446e-16;1.958249e-16;2.220446e-16;-3.394171e-19;2.716481e-19;-1.110223e-16;6.110652e-19;2.238997;1.110223e-16;-1.110223e-16;0
2.691469;-23.948945;2.297872;0;0;0;0;0;0;-1.085859e-17;0;0;0;0;1.085859e-17;-1.085859e-17;1.085859e-17;45;0;1.447812e-17;1.253842e-17;0;-2.171719e-17;0;0;2.171719e-17;2.279404;0;0;0
4.304455;-23.948945;2.297267;0;0;0;0;0;0;-1.085127e-17;0;0;0;0;1.085127e-17;-1.085127e-17;1.085127e-17;45;0;1.446836e-17;1.252997e-17;0;-2.170255e-17;0;0;2.170255e-17;2.274593;0;0;0
5.917441;-23.948945;2.225928;0;0;0;0;-1.110223e-16;0;-1.118627e-17;0;0;0;0;1.115878e-18;-1.121382e-16;5.662703e-17;45;0;7.55027e-17;7.513351e-17;-1.110223e-16;-2.237253e-17;0;0;2.237253e-17;2.213798;-1.110223e-16;1.110223e-16;0
7.530427;-23.948945;2.119346;0;0;0;0;0;2.220446e-16;5.41822e-19;0;0;0;0;2.220459e-16;-1.322119e-21;1.110236e-16;45;0;1.480315e-16;1.480311e-16;0;1.207449e-22;1.083523e-18;2.220446e-16;1.083402e-18;2.099001;2.220446e-16;-2.220446e-16;0
9.143413;-23.948945;1.957303;0;0;0;0;0;-1.110223e-16;-5.400407e-19;0;0;0;0;2.626834e-21;-1.110249e-16;5.551378e-17;45;0;7.401837e-17;7.40175e-17;0;0;-1.080081e-18;-1.110223e-16;-1.080081e-18;1.937841;-1.110223e-16;1.110223e-16;0
10.756399;-23.948945;1.745318;0;0;0;0;0;-1.110223e-16;1.032099e-17;0;0;0;0;9.513203e-19;-1.119736e-16;5.646247e-17;45;0;7.52833e-17;7.49682e-17;0;2.171828e-17;-1.076309e-18;-1.110223e-16;-2.279459e-17;1.729574;-1.110223e-16;1.110223e-16;0
12.369385;-23.948945;1.494116;0;0;0;0;0;0;-1.085731e-17;0;0;0;0;1.085731e-17;-1.085731e-17;1.085731e-17;45;0;1.447641e-17;1.253694e-17;0;-2.171461e-17;0;0;2.171461e-17;1.481781;0;0;0
13.982371;-23.948945;1.212077;0;0;0;0;-1.110223e-16;0;0;0;0;0;0;0;-1.110223e-16;5.551115e-17;45;0;7.401487e-17;7.401487e-17;-1.110223e-16;0;0;0;0;1.194849;-1.110223e-16;1.110223e-16;0
15.595357;-23.948945;0.882958;0;0;0;0;2.220446e-16;2.220446e-16;1.327578e-17;0;0;0;0;2.353204e-16;2.087688e-16;1.327578e-17;45;0;1.770104e-17;1.488214e-16;2.220446e-16;2.442714e-17;2.124413e-18;2.220446e-16;-2.230273e-17;0.86625;4.440892e-16;-4.440892e-16;0
17.208343;-23.948945;0.507606;0;0;0;0;2.220446e-16;0;2.307134e-17;0;0;0;0;2.244165e-16;-2.37187e-18;1.133942e-16;45;0;1.511922e-16;1.504078e-16;2.220446e-16;4.614268e-17;0;0;-4.614268e-17;0.489904;2.220446e-16;-2.220446e-16;0
18.821329;-23.948945;0.083144;0;0;0;0;2.220446e-16;0;-2.035877e-17;0;0;0;0;2.238958e-16;-1.851217e-18;1.128735e-16;45;0;1.50498e-16;1.498848e-16;2.220446e-16;-4.071755e-17;0;0;4.071755e-17;0.064433;2.220446e-16;-2.220446e-16;0
20.434315;-23.948945;-0.393564;0;0;0;0;-1.110223e-16;2.220446e-16;1.293414e-17;0;0;0;0;2.225461e-16;-1.115238e-16;1.67035e-16;45;0;2.227133e-16;1.963936e-16;-1.110223e-16;2.171741e-17;4.150878e-18;2.220446e-16;-1.756653e-17;-0.412667;1.110223e-16;-1.110223e-16;0
22.047301;-23.948945;-0.924999;0;0;0;0;0;0;-1.085848e-17;0;0;0;0;1.085848e-17;-1.085848e-17;1.085848e-17;45;0;1.447797e-17;1.253829e-17;0;-2.171696e-17;0;0;2.171696e-17;-0.941867;0;0;0
23.660287;-23.948945;-1.50642;0;0;0;0;-1.110223e-16;-1.110223e-16;-4.749896e-18;0;0;0;0;-1.062724e-16;-1.157722e-16;4.749896e-18;45;0;6.333194e-18;7.421781e-17;-1.110223e-16;-5.428737e-18;-4.071054e-18;-1.110223e-16;1.357683e-18;-1.522038;-2.220446e-16;2.220446e-16;0
25.273273;-23.948945;-2.135114;0;0;0;0;0;0;-1.08587e-17;0;0;0;0;1.08587e-17;-1.08587e-17;1.08587e-17;45;0;1.447827e-17;1.253855e-17;0;-2.17174e-17;0;0;2.17174e-17;-2.152076;0;0;0
26.886259;-23.948945;-2.815227;0;0;0;0;-1.110223e-16;-1.110223e-16;-4.706463e-18;0;0;0;0;-1.063158e-16;-1.157288e-16;4.706463e-18;45;0;6.275285e-18;7.421412e-17;-1.110223e-16;-5.430422e-18;-3.982504e-18;-1.110223e-16;1.447918e-18;-2.832642;-2.220446e-16;2.220446e-16;0
28.499246;-23.948945;-3.548467;0;0;0;0;0;0;0;0;0;0;0;0;0;0;45;0;0;0;0;0;0;0;0;-3.564816;0;0;0
30.112232;-23.948945;-4.333724;0;0;0;0;0;2.220446e-16;-8.928825e-18;0;0;0;0;2.224031e-16;-3.584659e-19;1.113808e-16;45;0;1.485077e-16;1.483883e-16;0;-2.173784e-17;3.880188e-18;2.220446e-16;2.561803e-17;-4.352265;2.220446e-16;-2.220446e-16;0
31.725218;-23.948945;-5.179305;0;0;0;0;2.220446e-16;0;-2.657004e-22;0;0;0;0;2.220446e-16;-3.179356e-28;1.110223e-16;45;0;1.480297e-16;1.480297e-16;2.220446e-16;-5.314008e-22;0;0;5.314008e-22;-5.197646;2.220446e-16;-2.220446e-16;0
33.338204;-23.948945;-6.08431;0;0;0;0;2.220446e-16;0;2.718414e-18;0;0;0;0;2.220779e-16;-3.32756e-20;1.110556e-16;45;0;1.480741e-16;1.48063e-16;2.220446e-16;5.436828e-18;0;0;-5.436828e-18;-6.115683;2.220446e-16;-2.220446e-16;0
34.95119;-23.948945;-7.08626;0;0;0;0;0;2.220446e-16;3.041199e-18;0;0;0;0;2.220862e-16;-4.164549e-20;1.11064e-16;45;0;1.480853e-16;1.480714e-16;0;-2.512666e-17;3.120906e-17;2.220446e-16;5.633572e-17;-7.087899;2.220446e-16;-2.220446e-16;0
36.564176;-23.948945;-8.092798;0;0;0;0;0;0;0;0;0;0;0;0;0;0;45;0;0;0;0;0;0;0;0;-8.09456;0;0;0
-42.47214;-25.561931;-16.961414;0;0;0;0;0;0;0;0;0;0;0;0;0;0;45;0;0;0;0;0;0;0;0;-16.964002;0;0;0
-40.859154;-25.561931;-15.30871;0;0;0;0;0;0;-1.361581e-17;0;0;0;0;1.361581e-17;-1.361581e-17;1.361581e-17;45;0;1.815442e-17;1.572219e-17;0;-2.723163e-17;0;0;2.723163e-17;-15.350384;0;0;0
-39.246168;-25.561931;-13.776522;0;0;0;0;0;0;1.089075e-17;0;0;0;0;1.089075e-17;-1.089075e-17;1.089075e-17;45;0;1.4521e-17;1.257555e-17;0;2.178149e-17;0;0;-2.178149e-17;-13.809111;0;0;0
-37.633182;-25.561931;-12.33959;0;0;0;0;2.220446e-16;-1.110223e-16;-1.468194e-17;0;0;0;0;2.226905e-16;-1.116682e-16;1.671794e-16;45;0;2.229059e-16;1.965574e-16;2.220446e-16;-3.26647e-17;3.300821e-18;-1.110223e-16;3.596552e-17;-12.376917;1.110223e-16;-1.110223e-16;0
-36.020196;-25.561931;-11.012839;0;0;0;0;0;0;0;0;0;0;0;0;0;0;45;0;0;0;0;0;0;0;0;-11.037657;0;0;0
-34.40721;-25.561931;-9.755217;0;0;0;0;0;0;0;0;0;0;0;0;0;0;45;0;0;0;0;0;0;0;0;-9.79447;0;0;0
-32.794224;-25.561931;-8.607436;0;0;0;0;2.220446e-16;0;-2.719999e-18;0;0;0;0;2.220779e-16;-3.33144e-20;1.110556e-16;45;0;1.480742e-16;1.480631e-16;2.220446e-16;-5.439998e-18;0;0;5.439998e-18;-8.644672;2.220446e-16;-2.220446e-16;0
-31.181238;-25.561931;-7.563844;0;0;0;0;-1.110223e-16;-1.110223e-16;4.554099e-18;0;0;0;0;-1.064682e-16;-1.155764e-16;4.554099e-18;45;0;6.072132e-18;7.420144e-17;-1.110223e-16;5.439836e-18;3.668361e-18;-1.110223e-16;-1.771475e-18;-7.577544;-2.220446e-16;2.220446e-16;0
-29.568251;-25.561931;-6.55854;0;0;0;0;0;0;-1.088066e-17;0;0;0;0;1.088066e-17;-1.088066e-17;1.088066e-17;45;0;1.450755e-17;1.25639e-17;0;-2.176132e-17;0;0;2.176132e-17;-6.58209;0;0;0
-27.955265;-25.561931;-5.624033;0;0;0;0;0;2.220446e-16;8.977415e-18;0;0;0;0;2.22407e-16;-3.623716e-19;1.113847e-16;45;0;1.485129e-16;1.483923e-16;0;2.176141e-17;-3.806584e-18;2.220446e-16;-2.5568e-17;-5.653561;2.220446e-16;-2.220446e-16;0
-26.342279;-25.561931;-4.776662;0;0;0;0;-1.110223e-16;0;2.175735e-17;0;0;0;0;4.111582e-18;-1.151339e-16;5.962274e-17;45;0;7.949698e-17;7.816251e-17;-1.110223e-16;4.351471e-17;0;0;-4.351471e-17;-4.793306;-1.110223e-16;1.110223e-16;0
-24.729293;-25.561931;-3.97544;0;0;0;0;0;2.220446e-16;-1.9582e-18;0;0;0;0;2.220619e-16;-1.726793e-20;1.110396e-16;45;0;1.480528e-16;1.48047e-16;0;2.515181e-22;-3.916652e-18;2.220446e-16;-3.916904e-18;-3.992905;2.220446e-16;-2.220446e-16;0
-23.116307;-25.561931;-3.222493;0;0;0;0;2.220446e-16;0;1.087163e-17;0;0;0;0;2.225756e-16;-5.310211e-19;1.115533e-16;45;0;1.487378e-16;1.485611e-16;2.220446e-16;2.174326e-17;0;0;-2.174326e-17;-3.240183;2.220446e-16;-2.220446e-16;0
-21.503321;-25.561931;-2.519005;0;0;0;0;0;0;2.173618e-17;0;0;0;0;2.173618e-17;-2.173618e-17;2.173618e-17;45;0;2.898158e-17;2.509878e-17;0;4.347236e-17;0;0;-4.347236e-17;-2.538634;0;0;0
-19.890335;-25.561931;-1.870761;0;0;0;0;0;-1.110223e-16;2.036029e-18;0;0;0;0;3.7326e-20;-1.110596e-16;5.554848e-17;45;0;7.406463e-17;7.40522e-17;0;0;4.072057e-18;-1.110223e-16;4.072057e-18;-1.901616;-1.110223e-16;1.110223e-16;0
-18.277349;-25.561931;-1.312102;0;0;0;0;0;0;0;0;0;0;0;0;0;0;45;0;0;0;0;0;0;0;0;-1.322521;0;0;0
-16.664363;-25.561931;-0.785574;0;0;0;0;0;0;0;0;0;0;0;0;0;0;45;0;0;0;0;0;0;0;0;-0.784631;0;0;0
-15.051377;-25.561931;-0.260923;0;0;0;0;0;0;-1.08605e-17;0;0;0;0;1.08605e-17;-1.08605e-17;1.08605e-17;45;0;1.448067e-17;1.254063e-17;0;-2.172101e-17;0;0;2.172101e-17;-0.302489;0;0;0
-13.438391;-25.561931;0.136871;0;0;0;0;0;-1.110223e-16;1.061485e-18;0;0;0;0;1.014793e-20;-1.110325e-16;5.55213e-17;45;0;7.40284e-17;7.402502e-17;0;0;2.122969e-18;-1.110223e-16;2.122969e-18;0.109907;-1.110223e-16;1.110223e-16;0
-11.825405;-25.561931;0.457425;0;0;0;0;2.220446e-16;0;9.496694e-18;0;0;0;0;2.2245e-16;-4.054268e-19;1.114277e-16;45;0;1.485703e-16;1.484354e-16;2.220446e-16;1.899339e-17;0;0;-1.899339e-17;0.464202;2.220446e-16;-2.220446e-16;0
-10.212419;-25.561931;0.805413;0;0;0;0;0;-1.110223e-16;1.062713e-18;0;0;0;0;1.017142e-20;-1.110325e-16;5.552132e-17;45;0;7.402843e-17;7.402504e-17;0;0;2.125425e-18;-1.110223e-16;2.125425e-18;0.8037;-1.110223e-16;1.110223e-16;0
-8.599433;-25.561931;1.151065;0;0;0;0;-1.110223e-16;0;-2.172219e-17;0;0;0;0;4.098758e-18;-1.151211e-16;5.960991e-17;45;0;7.947988e-17;7.814946e-17;-1.110223e-16;-4.344437e-17;0;0;4.344437e-17;1.143919;-1.110223e-16;1.110223e-16;0
-6.986447;-25.561931;1.471864;0;0;0;0;2.220446e-16;0;1.018273e-17;0;0;0;0;2.225106e-16;-4.659917e-19;1.114883e-16;45;0;1.486511e-16;1.48496e-16;2.220446e-16;2.036547e-17;0;0;-2.036547e-17;1.453813;2.220446e-16;-2.220446e-16;0
-5.373461;-25.561931;1.732285;0;0;0;0;0;0;2.171699e-17;0;0;0;0;2.171699e-17;-2.171699e-17;2.171699e-17;45;0;2.895599e-17;2.507662e-17;0;4.343398e-17;0;0;-4.343398e-17;1.705215;0;0;0
-3.760475;-25.561931;1.907812;0;0;0;0;0;0;-1.085443e-17;0;0;0;0;1.085443e-17;-1.085443e-17;1.085443e-17;45;0;1.447258e-17;1.253362e-17;0;-2.170886e-17;0;0;2.170886e-17;1.882497;0;0;0
-2.147489;-25.561931;2.00762;0;0;0;0;-1.110223e-16;0;1.119303e-17;0;0;0;0;1.117215e-18;-1.121395e-16;5.662837e-17;45;0;7.550449e-17;7.513485e-17;-1.110223e-16;2.238606e-17;0;0;-2.238606e-17;1.995424;-1.110223e-16;1.110223e-16;0
-0.534503;-25.561931;2.07225;0;0;0;0;0;2.220446e-16;1.075597e-17;0;0;0;0;2.225644e-16;-5.198083e-19;1.115421e-16;45;0;1.487228e-16;1.485498e-16;0;2.205515e-17;-5.43219e-19;2.220446e-16;-2.259837e-17;2.07294;2.220446e-16;-2.220446e-16;0
1.078483;-25.561931;2.138737;0;0;0;0;2.220446e-16;2.220446e-16;-1.13031e-17;0;0;0;0;2.333477e-16;2.107415e-16;1.13031e-17;45;0;1.507081e-17;1.48604e-16;2.220446e-16;-2.206293e-17;-5.432783e-19;2.220446e-16;2.151965e-17;2.136096;4.440892e-16;-4.440892e-16;0
2.691469;-25.561931;2.196346;0;0;0;0;0;2.220446e-16;1.079231e-17;0;0;0;0;2.225679e-16;-5.233185e-19;1.115456e-16;45;0;1.487275e-16;1.485534e-16;0;2.172052e-17;-1.359061e-19;2.220446e-16;-2.185643e-17;2.173638;2.220446e-16;-2.220446e-16;0
4.304455;-25.561931;2.184197;0;0;0;0;-1.110223e-16;2.220446e-16;1.021709e-19;0;0;0;0;2.220446e-16;-1.110223e-16;1.665335e-16;45;0;2.220447e-16;1.95825e-16;-1.110223e-16;-3.391244e-19;5.434662e-19;2.220446e-16;8.825907e-19;2.162653;1.110223e-16;-1.110223e-16;0
5.917441;-25.561931;2.104868;0;0;0;0;2.220446e-16;2.220446e-16;5.427889e-19;0;0;0;0;2.225874e-16;2.215018e-16;5.427889e-19;45;0;7.237186e-19;1.480311e-16;2.220446e-16;-1.038156e-23;1.085588e-18;2.220446e-16;1.085599e-18;2.097647;4.440892e-16;-4.440892e-16;0
7.530427;-25.561931;2.001406;0;0;0;0;2.220446e-16;0;-1.017053e-17;0;0;0;0;2.225095e-16;-4.648774e-19;1.114872e-16;45;0;1.486496e-16;1.484949e-16;2.220446e-16;-2.034105e-17;0;0;2.034105e-17;1.984023;2.220446e-16;-2.220446e-16;0
9.143413;-25.561931;1.845726;0;0;0;0;-1.110223e-16;-1.110223e-16;-1.218361e-18;0;0;0;0;-1.098039e-16;-1.122407e-16;1.218361e-18;45;0;1.624481e-18;7.402824e-17;-1.110223e-16;-1.35633e-18;-1.080393e-18;-1.110223e-16;2.75937e-19;1.82685;-2.220446e-16;2.220446e-16;0
10.756399;-25.561931;1.635186;0;0;0;0;0;2.220446e-16;-9.779564e-18;0;0;0;0;2.224745e-16;-4.298914e-19;1.114522e-16;45;0;1.486029e-16;1.484598e-16;0;-2.171168e-17;2.152556e-18;2.220446e-16;2.386424e-17;1.620684;2.220446e-16;-2.220446e-16;0
12.369385;-25.561931;1.380427;0;0;0;0;0;2.220446e-16;1.072551e-18;0;0;0;0;2.220498e-16;-5.180661e-21;1.110275e-16;45;0;1.480366e-16;1.480349e-16;0;0;2.145101e-18;2.220446e-16;2.145101e-18;1.37229;2.220446e-16;-2.220446e-16;0
13.982371;-25.561931;1.097227;0;0;0;0;0;0;0;0;0;0;0;0;0;0;45;0;0;0;0;0;0;0;0;1.083528;0;0;0
15.595357;-25.561931;0.768103;0;0;0;0;2.220446e-16;2.220446e-16;1.433682e-17;0;0;0;0;2.363814e-16;2.077078e-16;1.433682e-17;45;0;1.911576e-17;1.489525e-16;2.220446e-16;2.442554e-17;4.24809e-18;2.220446e-16;-2.017745e-17;0.753136;4.440892e-16;-4.440892e-16;0
17.208343;-25.561931;0.391754;0;0;0;0;0;0;0;0;0;0;0;0;0;0;45;0;0;0;0;0;0;0;0;0.375011;0;0;0
18.821329;-25.561931;-0.03386;0;0;0;0;2.220446e-16;0;1.221148e-17;0;0;0;0;2.227142e-16;-6.695591e-19;1.116919e-16;45;0;1.489225e-16;1.486998e-16;2.220446e-16;2.442296e-17;0;0;-2.442296e-17;-0.052055;2.220446e-16;-2.220446e-16;0
20.434315;-25.561931;-0.510924;0;0;0;0;0;-1.110223e-16;-1.293119e-17;0;0;0;0;1.486249e-18;-1.125086e-16;5.69974e-17;45;0;7.599654e-17;7.550599e-17;0;-2.171213e-17;-4.150258e-18;-1.110223e-16;1.756187e-17;-0.530349;-1.110223e-16;1.110223e-16;0
22.047301;-25.561931;-1.043301;0;0;0;0;0;-1.110223e-16;-2.054957e-18;0;0;0;0;3.802303e-20;-1.110603e-16;5.554918e-17;45;0;7.406557e-17;7.405289e-17;0;0;-4.109915e-18;-1.110223e-16;-4.109915e-18;-1.060586;-1.110223e-16;1.110223e-16;0
23.660287;-25.561931;-1.627136;0;0;0;0;0;0;3.257911e-17;0;0;0;0;3.257911e-17;-3.257911e-17;3.257911e-17;45;0;4.343881e-17;3.761911e-17;0;6.515821e-17;0;0;-6.515821e-17;-1.64211;0;0;0
25.273273;-25.561931;-2.259052;0;0;0;0;-1.110223e-16;0;2.172213e-17;0;0;0;0;4.098737e-18;-1.15121e-16;5.960989e-17;45;0;7.947985e-17;7.814944e-17;-1.110223e-16;4.344426e-17;0;0;-4.344426e-17;-2.272726;-1.110223e-16;1.110223e-16;0
26.886259;-25.561931;-2.937454;0;0;0;0;-1.110223e-16;0;-3.530716e-17;0;0;0;0;1.027702e-17;-1.212993e-16;6.578817e-17;45;0;8.771756e-17;8.450046e-17;-1.110223e-16;-7.061432e-17;0;0;7.061432e-17;-2.952336;-1.110223e-16;1.110223e-16;0
28.499246;-25.561931;-3.666637;0;0;0;0;0;2.220446e-16;1.283711e-17;0;0;0;0;2.227843e-16;-7.396908e-19;1.11762e-16;45;0;1.49016e-16;1.4877e-16;0;2.17362e-17;3.938024e-18;2.220446e-16;-1.779818e-17;-3.681598;2.220446e-16;-2.220446e-16;0
30.112232;-25.561931;-4.446967;0;0;0;0;0;-1.110223e-16;-1.281369e-17;0;0;0;0;1.459705e-18;-1.12482e-16;5.697085e-17;45;0;7.596114e-17;7.547928e-17;0;-2.174496e-17;-3.882407e-18;-1.110223e-16;1.786256e-17;-4.466596;-1.110223e-16;1.110223e-16;0
31.725218;-25.561931;-5.293023;0;0;0;0;0;-1.110223e-16;-2.365909e-17;0;0;0;0;4.83154e-18;-1.158538e-16;6.034269e-17;45;0;8.045692e-17;7.889574e-17;0;-4.349892e-17;-3.819262e-18;-1.110223e-16;3.967966e-17;-5.311401;-1.110223e-16;1.110223e-16;0
33.338204;-25.561931;-6.201027;0;0;0;0;0;0;-1.087521e-17;0;0;0;0;1.087521e-17;-1.087521e-17;1.087521e-17;45;0;1.450029e-17;1.255762e-17;0;-2.175043e-17;0;0;2.175043e-17;-6.23108;0;0;0
34.95119;-25.561931;-7.203426;0;0;0;0;0;-1.110223e-16;-1.271787e-17;0;0;0;0;1.43823e-18;-1.124605e-16;5.694938e-17;45;0;7.593251e-17;7.545767e-17;0;-2.174978e-17;-3.685954e-18;-1.110223e-16;1.806382e-17;-7.206739;-1.110223e-16;1.110223e-16;0
36.564176;-25.561931;-8.215117;0;0;0;0;-2.220446e-16;2.220446e-16;2.831504e-18;0;0;0;0;2.220627e-16;-2.220627e-16;2.220627e-16;45;0;2.960835e-16;2.564159e-16;-2.220446e-16;-9.955962e-18;1.561897e-17;2.220446e-16;2.557493e-17;-8.217376;0;0;0
-42.47214;-27.174917;-17.069682;0;0;0;0;0;-1.110223e-16;4.298034e-18;0;0;0;0;1.661422e-19;-1.111884e-16;5.56773e-17;45;0;7.423639e-17;7.418107e-17;0;0;8.596068e-18;-1.110223e-16;8.596068e-18;-17.067772;-1.110223e-16;1.110223e-16;0
-40.859154;-27.174917;-15.421494;0;0;0;0;0;0;-3.26763e-17;0;0;0;0;3.26763e-17;-3.26763e-17;3.26763e-17;45;0;4.35684e-17;3.773134e-17;0;-6.53526e-17;0;0;6.53526e-17;-15.458584;0;0;0
-39.246168;-27.174917;-13.883925;0;0;0;0;0;0;1.088968e-17;0;0;0;0;1.088968e-17;-1.088968e-17;1.088968e-17;45;0;1.451958e-17;1.257432e-17;0;2.177936e-17;0;0;-2.177936e-17;-13.920431;0;0;0
-37.633182;-27.174917;-12.452162;0;0;0;0;0;0;-2.177519e-17;0;0;0;0;2.177519e-17;-2.177519e-17;2.177519e-17;45;0;2.903359e-17;2.514383e-17;0;-4.355038e-17;0;0;4.355038e-17;-12.487246;0;0;0
-36.020196;-27.174917;-11.120075;0;0;0;0;2.220446e-16;0;5.443697e-18;0;0;0;0;2.22178e-16;-1.333788e-19;1.111557e-16;45;0;1.482076e-16;1.481631e-16;2.220446e-16;1.088739e-17;0;0;-1.088739e-17;-11.145638;2.220446e-16;-2.220446e-16;0
-34.40721;-27.174917;-9.860448;0;0;0;0;-1.110223e-16;0;2.176922e-17;0;0;0;0;4.115913e-18;-1.151382e-16;5.962706e-17;45;0;7.950275e-17;7.816691e-17;-1.110223e-16;4.353844e-17;0;0;-4.353844e-17;-9.900065;-1.110223e-16;1.110223e-16;0
-32.794224;-27.174917;-8.718989;0;0;0;0;0;-1.110223e-16;-9.083682e-18;0;0;0;0;7.383038e-19;-1.117606e-16;5.624945e-17;45;0;7.499928e-17;7.475439e-17;0;-2.176503e-17;3.597664e-18;-1.110223e-16;2.536269e-17;-8.750463;-1.110223e-16;1.110223e-16;0
-31.181238;-27.174917;-7.67691;0;0;0;0;0;0;-1.088156e-17;0;0;0;0;1.088156e-17;-1.088156e-17;1.088156e-17;45;0;1.450874e-17;1.256494e-17;0;-2.176311e-17;0;0;2.176311e-17;-7.683265;0;0;0
-29.568251;-27.174917;-6.660904;0;0;0;0;0;-1.110223e-16;1.274178e-17;0;0;0;0;1.443575e-18;-1.124659e-16;5.695473e-17;45;0;7.593963e-17;7.546305e-17;0;2.176277e-17;3.720784e-18;-1.110223e-16;-1.804199e-17;-6.686115;-1.110223e-16;1.110223e-16;0
-27.955265;-27.174917;-5.722886;0;0;0;0;0;0;-1.087914e-17;0;0;0;0;1.087914e-17;-1.087914e-17;1.087914e-17;45;0;1.450552e-17;1.256214e-17;0;-2.175827e-17;0;0;2.175827e-17;-5.75577;0;0;0
-26.342279;-27.174917;-4.879224;0;0;0;0;2.220446e-16;-1.110223e-16;1.281335e-17;0;0;0;0;2.225368e-16;-1.115145e-16;1.670257e-16;45;0;2.227009e-16;1.963831e-16;2.220446e-16;2.175231e-17;3.874387e-18;-1.110223e-16;-1.787793e-17;-4.896127;1.110223e-16;-1.110223e-16;0
-24.729293;-27.174917;-4.081364;0;0;0;0;0;0;0;0;0;0;0;0;0;0;45;0;0;0;0;0;0;0;0;-4.097988;0;0;0
-23.116307;-27.174917;-3.331908;0;0;0;0;0;-1.110223e-16;1.983119e-18;0;0;0;0;3.541186e-20;-1.110577e-16;5.554656e-17;45;0;7.406209e-17;7.405028e-17;0;0;3.966238e-18;-1.110223e-16;3.966238e-18;-3.348256;-1.110223e-16;1.110223e-16;0
-21.503321;-27.174917;-2.633078;0;0;0;0;2.220446e-16;-1.110223e-16;-1.972878e-17;0;0;0;0;2.232091e-16;-1.121868e-16;1.67698e-16;45;0;2.235973e-16;1.971456e-16;2.220446e-16;-4.346962e-17;4.012068e-18;-1.110223e-16;4.748169e-17;-2.648841;1.110223e-16;-1.110223e-16;0
-19.890335;-27.174917;-1.98365;0;0;0;0;-1.110223e-16;0;2.716376e-18;0;0;0;0;6.642168e-20;-1.110887e-16;5.557757e-17;45;0;7.410343e-17;7.40813e-17;-1.110223e-16;5.432752e-18;0;0;-5.432752e-18;-2.011425;-1.110223e-16;1.110223e-16;0
-18.277349;-27.174917;-1.41801;0;0;0;0;-1.110223e-16;-1.110223e-16;3.416789e-18;0;0;0;0;-1.076055e-16;-1.144391e-16;3.416789e-18;45;0;4.555719e-18;7.411995e-17;-1.110223e-16;2.71664e-18;4.116939e-18;-1.110223e-16;1.400299e-18;-1.42951;-2.220446e-16;2.220446e-16;0
-16.664363;-27.174917;-0.885955;0;0;0;0;0;-1.110223e-16;1.033749e-18;0;0;0;0;9.624595e-21;-1.110319e-16;5.552077e-17;45;0;7.40277e-17;7.402449e-17;0;0;2.067498e-18;-1.110223e-16;2.067498e-18;-0.890867;-1.110223e-16;1.110223e-16;0
-15.051377;-27.174917;-0.368937;0;0;0;0;0;0;0;0;0;0;0;0;0;0;45;0;0;0;0;0;0;0;0;-0.412582;0;0;0
-13.438391;-27.174917;0.012196;0;0;0;0;0;0;1.085478e-17;0;0;0;0;1.085478e-17;-1.085478e-17;1.085478e-17;45;0;1.447304e-17;1.253402e-17;0;2.170955e-17;0;0;-2.170955e-17;-0.004062;0;0;0
-11.825405;-27.174917;0.335747;0;0;0;0;-1.110223e-16;2.220446e-16;9.79007e-18;0;0;0;0;2.223321e-16;-1.113098e-16;1.66821e-16;45;0;2.22428e-16;1.96151e-16;-1.110223e-16;2.170802e-17;-2.127876e-18;2.220446e-16;-2.383589e-17;0.349966;1.110223e-16;-1.110223e-16;0
-10.212419;-27.174917;0.692536;0;0;0;0;0;0;-1.085955e-17;0;0;0;0;1.085955e-17;-1.085955e-17;1.085955e-17;45;0;1.447941e-17;1.253953e-17;0;-2.171911e-17;0;0;2.171911e-17;0.693961;0;0;0
-8.599433;-27.174917;1.047032;0;0;0;0;-1.110223e-16;0;-2.191589e-23;0;0;0;0;4.326409e-30;-1.110223e-16;5.551115e-17;45;0;7.401487e-17;7.401487e-17;-1.110223e-16;-4.383178e-23;0;0;4.383178e-23;1.038214;-1.110223e-16;1.110223e-16;0
-6.986447;-27.174917;1.371446;0;0;0;0;0;0;-1.018576e-17;0;0;0;0;1.018576e-17;-1.018576e-17;1.018576e-17;45;0;1.358102e-17;1.17615e-17;0;-2.037152e-17;0;0;2.037152e-17;1.349216;0;0;0
-5.373461;-27.174917;1.627656;0;0;0;0;0;0;-1.592862e-22;0;0;0;0;1.592862e-22;-1.592862e-22;1.592862e-22;45;0;2.123816e-22;1.839278e-22;0;-3.185724e-22;0;0;3.185724e-22;1.597988;0;0;0
-3.760475;-27.174917;1.794636;0;0;0;0;0;-1.110223e-16;8.810223e-19;0;0;0;0;6.990951e-21;-1.110293e-16;5.551814e-17;45;0;7.402419e-17;7.402186e-17;0;6.783603e-19;1.083684e-18;-1.110223e-16;4.053241e-19;1.771565;-1.110223e-16;1.110223e-16;0
-2.147489;-27.174917;1.893272;0;0;0;0;0;0;-2.170311e-17;0;0;0;0;2.170311e-17;-2.170311e-17;2.170311e-17;45;0;2.893747e-17;2.506059e-17;0;-4.340621e-17;0;0;4.340621e-17;1.883563;0;0;0
-0.534503;-27.174917;1.966092;0;0;0;0;2.220446e-16;-1.110223e-16;-1.09226e-17;0;0;0;0;2.224024e-16;-1.113801e-16;1.668913e-16;45;0;2.225217e-16;1.962307e-16;2.220446e-16;-2.238833e-17;5.431314e-19;-1.110223e-16;2.293146e-17;1.964035;1.110223e-16;-1.110223e-16;0
1.078483;-27.174917;2.039711;0;0;0;0;-1.110223e-16;-1.110223e-16;-2.110564e-17;0;0;0;0;-8.991666e-17;-1.321279e-16;2.110564e-17;45;0;2.814086e-17;7.792388e-17;-1.110223e-16;-4.275454e-17;5.432523e-19;-1.110223e-16;4.329779e-17;2.030226;-2.220446e-16;2.220446e-16;0
2.691469;-27.174917;2.093836;0;0;0;0;2.220446e-16;-1.110223e-16;-1.684958e-20;0;0;0;0;2.220446e-16;-1.110223e-16;1.665335e-16;45;0;2.220446e-16;1.958249e-16;2.220446e-16;-1.696099e-19;1.359108e-19;-1.110223e-16;3.055207e-19;2.067077;1.110223e-16;-1.110223e-16;0
4.304455;-27.174917;2.07423;0;0;0;0;0;2.220446e-16;-1.058317e-17;0;0;0;0;2.225479e-16;-5.032779e-19;1.115256e-16;45;0;1.487008e-16;1.485333e-16;0;-2.170974e-17;5.434096e-19;2.220446e-16;2.225315e-17;2.052138;2.220446e-16;-2.220446e-16;0
5.917441;-27.174917;1.989334;0;0;0;0;0;-1.110223e-16;-2.713621e-19;0;0;0;0;6.632626e-22;-1.11023e-16;5.551181e-17;45;0;7.401575e-17;7.401553e-17;0;0;-5.427242e-19;-1.110223e-16;-5.427242e-19;1.983004;-1.110223e-16;1.110223e-16;0
7.530427;-27.174917;1.882247;0;0;0;0;0;0;0;0;0;0;0;0;0;0;45;0;0;0;0;0;0;0;0;1.868213;0;0;0
9.143413;-27.174917;1.730046;0;0;0;0;0;0;2.170218e-17;0;0;0;0;2.170218e-17;-2.170218e-17;2.170218e-17;45;0;2.893624e-17;2.505952e-17;0;4.340436e-17;0;0;-4.340436e-17;1.712466;0;0;0
10.756399;-27.174917;1.525072;0;0;0;0;0;0;1.085514e-17;0;0;0;0;1.085514e-17;-1.085514e-17;1.085514e-17;45;0;1.447352e-17;1.253444e-17;0;2.171028e-17;0;0;-2.171028e-17;1.508895;0;0;0
12.369385;-27.174917;1.272964;0;0;0;0;0;0;1.08586e-17;0;0;0;0;1.08586e-17;-1.08586e-17;1.08586e-17;45;0;1.447813e-17;1.253843e-17;0;2.171719e-17;0;0;-2.171719e-17;1.261938;0;0;0
13.982371;-27.174917;0.988223;0;0;0;0;0;0;-1.085954e-17;0;0;0;0;1.085954e-17;-1.085954e-17;1.085954e-17;45;0;1.447939e-17;1.253952e-17;0;-2.171908e-17;0;0;2.171908e-17;0.972972;0;0;0
15.595357;-27.174917;0.655657;0;0;0;0;2.220446e-16;2.220446e-16;-8.439886e-18;0;0;0;0;2.304845e-16;2.136047e-16;8.439886e-18;45;0;1.125318e-17;1.483502e-16;2.220446e-16;-1.900306e-17;2.123287e-18;2.220446e-16;2.112635e-17;0.640885;4.440892e-16;-4.440892e-16;0
17.208343;-27.174917;0.274619;0;0;0;0;0;0;1.085711e-17;0;0;0;0;1.085711e-17;-1.085711e-17;1.085711e-17;45;0;1.447615e-17;1.253671e-17;0;2.171423e-17;0;0;-2.171423e-17;0.260249;0;0;0
18.821329;-27.174917;-0.154886;0;0;0;0;-1.110223e-16;-1.110223e-16;8.452156e-18;0;0;0;0;-1.025701e-16;-1.194745e-16;8.452156e-18;45;0;1.126954e-17;7.465556e-17;-1.110223e-16;1.899726e-17;-2.092943e-18;-1.110223e-16;-2.10902e-17;-0.169498;-2.220446e-16;2.220446e-16;0
20.434315;-27.174917;-0.632388;0;0;0;0;0;0;0;0;0;0;0;0;0;0;45;0;0;0;0;0;0;0;0;-0.649209;0;0;0
22.047301;-27.174917;-1.162367;0;0;0;0;2.220446e-16;-1.110223e-16;-2.105741e-17;0;0;0;0;2.233706e-16;-1.123483e-16;1.678595e-16;45;0;2.238127e-16;1.973287e-16;2.220446e-16;-3.800372e-17;-4.111097e-18;-1.110223e-16;3.389263e-17;-1.179328;1.110223e-16;-1.110223e-16;0
23.660287;-27.174917;-1.744178;0;0;0;0;2.220446e-16;0;1.357728e-17;0;0;0;0;2.228717e-16;-8.271245e-19;1.118494e-16;45;0;1.491326e-16;1.488576e-16;2.220446e-16;2.715457e-17;0;0;-2.715457e-17;-1.760009;2.220446e-16;-2.220446e-16;0
25.273273;-27.174917;-2.376423;0;0;0;0;-1.110223e-16;-1.110223e-16;8.850512e-18;0;0;0;0;-1.021718e-16;-1.198728e-16;8.850512e-18;45;0;1.180068e-17;7.471709e-17;-1.110223e-16;2.172992e-17;-4.028896e-18;-1.110223e-16;-2.575882e-17;-2.39005;-2.220446e-16;2.220446e-16;0
26.886259;-27.174917;-3.053534;0;0;0;0;2.220446e-16;0;2.716499e-18;0;0;0;0;2.220778e-16;-3.322875e-20;1.110555e-16;45;0;1.48074e-16;1.48063e-16;2.220446e-16;5.432998e-18;0;0;-5.432998e-18;-3.069173;2.220446e-16;-2.220446e-16;0
28.499246;-27.174917;-3.779115;0;0;0;0;0;0;0;0;0;0;0;0;0;0;45;0;0;0;0;0;0;0;0;-3.79689;0;0;0
30.112232;-27.174917;-4.55326;0;0;0;0;2.220446e-16;2.220446e-16;-6.211651e-18;0;0;0;0;2.282563e-16;2.15833e-16;6.211651e-18;45;0;8.282201e-18;1.482034e-16;2.220446e-16;-1.63079e-17;3.884599e-18;2.220446e-16;2.01925e-17;-4.580233;4.440892e-16;-4.440892e-16;0
31.725218;-27.174917;-5.398872;0;0;0;0;0;0;1.087397e-17;0;0;0;0;1.087397e-17;-1.087397e-17;1.087397e-17;45;0;1.449862e-17;1.255617e-17;0;2.174793e-17;0;0;-2.174793e-17;-5.424581;0;0;0
33.338204;-27.174917;-6.312125;0;0;0;0;-1.110223e-16;-1.110223e-16;-2.361696e-17;0;0;0;0;-8.740534e-17;-1.346393e-16;2.361696e-17;45;0;3.148928e-17;7.88789e-17;-1.110223e-16;-4.349917e-17;-3.734754e-18;-1.110223e-16;3.976441e-17;-6.346552;-2.220446e-16;2.220446e-16;0
34.95119;-27.174917;-7.321371;0;0;0;0;0;0;1.087334e-17;0;0;0;0;1.087334e-17;-1.087334e-17;1.087334e-17;45;0;1.449779e-17;1.255545e-17;0;2.174668e-17;0;0;-2.174668e-17;-7.32817;0;0;0
36.564176;-27.174917;-8.344213;0;0;0;0;2.220446e-16;0;1.553223e-18;0;0;0;0;2.220555e-16;-1.08644e-20;1.110332e-16;45;0;1.480442e-16;1.480406e-16;2.220446e-16;3.106445e-18;0;0;-3.106445e-18;-8.347468;2.220446e-16;-2.220446e-16;0
-42.47214;-28.787903;-17.172223;0;0;0;0;0;-1.110223e-16;1.623034e-17;0;0;0;0;2.324062e-18;-1.133464e-16;5.783521e-17;45;0;7.711362e-17;7.635072e-17;0;2.815183e-17;4.308853e-18;-1.110223e-16;-2.384298e-17;-17.174594;-1.110223e-16;1.110223e-16;0
-40.859154;-28.787903;-15.532558;0;0;0;0;0;0;2.178474e-17;0;0;0;0;2.178474e-17;-2.178474e-17;2.178474e-17;45;0;2.904631e-17;2.515485e-17;0;4.356947e-17;0;0;-4.356947e-17;-15.56783;0;0;0
-39.246168;-28.787903;-14.000732;0;0;0;0;2.220446e-16;-1.110223e-16;-1.122099e-18;0;0;0;0;2.220484e-16;-1.110261e-16;1.665372e-16;45;0;2.220496e-16;1.958292e-16;2.220446e-16;-5.444145e-18;3.199948e-18;-1.110223e-16;8.644092e-18;-14.031546;1.110223e-16;-1.110223e-16;0
-37.633182;-28.787903;-12.568191;0;0;0;0;0;2.220446e-16;7.588307e-18;0;0;0;0;2.223036e-16;-2.590259e-19;1.112813e-16;45;0;1.483751e-16;1.482888e-16;0;2.177532e-17;-6.598703e-18;2.220446e-16;-2.837402e-17;-12.598605;2.220446e-16;-2.220446e-16;0
-36.020196;-28.787903;-11.231179;0;0;0;0;-2.220446e-16;0;2.721306e-17;0;0;0;0;3.2865e-18;-2.253311e-16;1.143088e-16;45;0;1.524117e-16;1.513281e-16;-2.220446e-16;5.442612e-17;0;0;-5.442612e-17;-11.257356;-2.220446e-16;2.220446e-16;0
-34.40721;-28.787903;-9.971046;0;0;0;0;-1.110223e-16;0;-8.163333e-18;0;0;0;0;5.970292e-19;-1.116193e-16;5.610818e-17;45;0;7.481091e-17;7.461269e-17;-1.110223e-16;-1.632667e-17;0;0;1.632667e-17;-10.010297;-1.110223e-16;1.110223e-16;0
-32.794224;-28.787903;-8.823355;0;0;0;0;0;0;2.176556e-17;0;0;0;0;2.176556e-17;-2.176556e-17;2.176556e-17;45;0;2.902075e-17;2.513271e-17;0;4.353113e-17;0;0;-4.353113e-17;-8.858896;0;0;0
-31.181238;-28.787903;-7.776924;0;0;0;0;0;0;0;0;0;0;0;0;0;0;45;0;0;0;0;0;0;0;0;-7.789907;0;0;0
-29.568251;-28.787903;-6.762478;0;0;0;0;0;0;1.087922e-17;0;0;0;0;1.087922e-17;-1.087922e-17;1.087922e-17;45;0;1.450562e-17;1.256224e-17;0;2.175843e-17;0;0;-2.175843e-17;-6.792609;0;0;0
-27.955265;-28.787903;-5.828513;0;0;0;0;0;0;2.175008e-17;0;0;0;0;2.175008e-17;-2.175008e-17;2.175008e-17;45;0;2.900011e-17;2.511483e-17;0;4.350016e-17;0;0;-4.350016e-17;-5.863022;0;0;0
-26.342279;-28.787903;-4.98869;0;0;0;0;2.220446e-16;0;1.902828e-17;0;0;0;0;2.236634e-16;-1.618841e-18;1.126411e-16;45;0;1.501882e-16;1.496515e-16;2.220446e-16;3.805657e-17;0;0;-3.805657e-17;-5.003566;2.220446e-16;-2.220446e-16;0
-24.729293;-28.787903;-4.188326;0;0;0;0;2.220446e-16;-1.110223e-16;-8.913783e-18;0;0;0;0;2.22283e-16;-1.112607e-16;1.667718e-16;45;0;2.223625e-16;1.960952e-16;2.220446e-16;-2.174592e-17;3.918357e-18;-1.110223e-16;2.566428e-17;-4.205368;1.110223e-16;-1.110223e-16;0
-23.116307;-28.787903;-3.437787;0;0;0;0;0;2.220446e-16;-1.285599e-17;0;0;0;0;2.227865e-16;-7.41861e-19;1.117642e-16;45;0;1.490189e-16;1.487722e-16;0;-2.17434e-17;-3.968589e-18;2.220446e-16;1.777481e-17;-3.456935;2.220446e-16;-2.220446e-16;0
-21.503321;-28.787903;-2.744899;0;0;0;0;2.220446e-16;0;1.232604e-22;0;0;0;0;2.220446e-16;-6.840903e-29;1.110223e-16;45;0;1.480297e-16;1.480297e-16;2.220446e-16;2.465207e-22;0;0;-2.465207e-22;-2.759866;2.220446e-16;-2.220446e-16;0
-19.890335;-28.787903;-2.095987;0;0;0;0;0;2.220446e-16;-2.034058e-18;0;0;0;0;2.220632e-16;-1.863159e-20;1.110409e-16;45;0;1.480546e-16;1.480484e-16;0;0;-4.068115e-18;2.220446e-16;-4.068115e-18;-2.12317;2.220446e-16;-2.220446e-16;0
-18.277349;-28.787903;-1.525332;0;0;0;0;0;-1.110223e-16;6.983806e-19;0;0;0;0;4.392956e-21;-1.110267e-16;5.551555e-17;45;0;7.402073e-17;7.401926e-17;0;-2.716101e-18;4.112862e-18;-1.110223e-16;6.828963e-18;-1.538417;-1.110223e-16;1.110223e-16;0
-16.664363;-28.787903;-0.988218;0;0;0;0;-1.110223e-16;0;1.358333e-18;0;0;0;0;1.661642e-20;-1.110389e-16;5.552777e-17;45;0;7.403703e-17;7.403149e-17;-1.110223e-16;2.716667e-18;0;0;-2.716667e-18;-0.996725;-1.110223e-16;1.110223e-16;0
-15.051377;-28.787903;-0.47275;0;0;0;0;-1.110223e-16;0;1.222311e-17;0;0;0;0;1.329787e-18;-1.123521e-16;5.684094e-17;45;0;7.578792e-17;7.534856e-17;-1.110223e-16;2.444621e-17;0;0;-2.444621e-17;-0.519799;-1.110223e-16;1.110223e-16;0
-13.438391;-28.787903;-0.099953;0;0;0;0;2.220446e-16;0;9.503633e-18;0;0;0;0;2.224506e-16;-4.060183e-19;1.114283e-16;45;0;1.485711e-16;1.484359e-16;2.220446e-16;1.900727e-17;0;0;-1.900727e-17;-0.114898;2.220446e-16;-2.220446e-16;0
-11.825405;-28.787903;0.223769;0;0;0;0;-1.110223e-16;-1.110223e-16;1.192254e-17;0;0;0;0;-9.909976e-17;-1.229448e-16;1.192254e-17;45;0;1.589672e-17;7.528433e-17;-1.110223e-16;2.171759e-17;2.127484e-18;-1.110223e-16;-1.959011e-17;0.236822;-2.220446e-16;2.220446e-16;0
-10.212419;-28.787903;0.585689;0;0;0;0;-1.110223e-16;0;-2.96097e-24;0;0;0;0;7.395571e-32;-1.110223e-16;5.551115e-17;45;0;7.401487e-17;7.401487e-17;-1.110223e-16;-5.921941e-24;0;0;5.921941e-24;0.583691;-1.110223e-16;1.110223e-16;0
-8.599433;-28.787903;0.946973;0;0;0;0;2.220446e-16;0;-1.357665e-18;0;0;0;0;2.220529e-16;-8.300969e-21;1.110306e-16;45;0;1.480408e-16;1.48038e-16;2.220446e-16;-2.71533e-18;0;0;2.71533e-18;0.931705;2.220446e-16;-2.220446e-16;0
-6.986447;-28.787903;1.271905;0;0;0;0;0;2.220446e-16;-1.261066e-17;0;0;0;0;2.227585e-16;-7.13907e-19;1.117362e-16;45;0;1.489816e-16;1.487442e-16;0;-2.308068e-17;-2.140655e-18;2.220446e-16;2.094002e-17;1.244071;2.220446e-16;-2.220446e-16;0
-5.373461;-28.787903;1.522717;0;0;0;0;2.220446e-16;-1.110223e-16;-1.392689e-19;0;0;0;0;2.220447e-16;-1.110224e-16;1.665335e-16;45;0;2.220447e-16;1.95825e-16;2.220446e-16;-1.357128e-18;1.07859e-18;-1.110223e-16;2.435719e-18;1.489752;1.110223e-16;-1.110223e-16;0
-3.760475;-28.787903;1.681567;0;0;0;0;0;2.220446e-16;-1.139358e-17;0;0;0;0;2.226277e-16;-5.830978e-19;1.116054e-16;45;0;1.488072e-16;1.486132e-16;0;-2.170321e-17;-1.083952e-18;2.220446e-16;2.061926e-17;1.658838;2.220446e-16;-2.220446e-16;0
-2.147489;-28.787903;1.776521;0;0;0;0;0;2.220446e-16;-5.42921e-19;0;0;0;0;2.220459e-16;-1.327488e-21;1.110236e-16;45;0;1.480315e-16;1.480311e-16;0;0;-1.085842e-18;2.220446e-16;-1.085842e-18;1.768862;2.220446e-16;-2.220446e-16;0
-0.534503;-28.787903;1.852293;0;0;0;0;-1.110223e-16;2.220446e-16;-1.078111e-17;0;0;0;0;2.223932e-16;-1.113709e-16;1.668821e-16;45;0;2.225094e-16;1.962202e-16;-1.110223e-16;-2.101914e-17;-5.430803e-19;2.220446e-16;2.047606e-17;1.850729;1.110223e-16;-1.110223e-16;0
1.078483;-28.787903;1.92982;0;0;0;0;2.220446e-16;2.220446e-16;-1.146047e-17;0;0;0;0;2.335051e-16;2.105841e-16;1.146047e-17;45;0;1.528063e-17;1.486201e-16;2.220446e-16;-2.237771e-17;-5.432298e-19;2.220446e-16;2.183448e-17;1.9191;4.440892e-16;-4.440892e-16;0
2.691469;-28.787903;1.982948;0;0;0;0;-1.110223e-16;0;8.476062e-20;0;0;0;0;6.471094e-23;-1.110224e-16;5.551122e-17;45;0;7.401496e-17;7.401493e-17;-1.110223e-16;1.695212e-19;0;0;-1.695212e-19;1.957185;-1.110223e-16;1.110223e-16;0
4.304455;-28.787903;1.963873;0;0;0;0;0;2.220446e-16;2.717054e-19;0;0;0;0;2.220449e-16;-3.324724e-22;1.110226e-16;45;0;1.480302e-16;1.480301e-16;0;0;5.434107e-19;2.220446e-16;5.434107e-19;1.9422;2.220446e-16;-2.220446e-16;0
5.917441;-28.787903;1.879614;0;0;0;0;0;-1.110223e-16;-2.713431e-19;0;0;0;0;6.631697e-22;-1.11023e-16;5.551181e-17;45;0;7.401575e-17;7.401553e-17;0;-1.150345e-23;-5.426746e-19;-1.110223e-16;-5.426632e-19;1.871461;-1.110223e-16;1.110223e-16;0
7.530427;-28.787903;1.767271;0;0;0;0;0;2.220446e-16;8.809863e-19;0;0;0;0;2.220481e-16;-3.495355e-21;1.110258e-16;45;0;1.480344e-16;1.480332e-16;0;6.783372e-19;1.083635e-18;2.220446e-16;4.052981e-19;1.754581;2.220446e-16;-2.220446e-16;0
9.143413;-28.787903;1.613405;0;0;0;0;2.220446e-16;2.220446e-16;1.193189e-17;0;0;0;0;2.339765e-16;2.101127e-16;1.193189e-17;45;0;1.590918e-17;1.486695e-16;2.220446e-16;2.170236e-17;2.161408e-18;2.220446e-16;-1.954096e-17;1.597644;4.440892e-16;-4.440892e-16;0
10.756399;-28.787903;1.411836;0;0;0;0;0;0;0;0;0;0;0;0;0;0;45;0;0;0;0;0;0;0;0;1.395551;0;0;0
12.369385;-28.787903;1.165399;0;0;0;0;0;2.220446e-16;3.94387e-19;0;0;0;0;2.220453e-16;-7.004927e-22;1.11023e-16;45;0;1.480307e-16;1.480304e-16;0;-1.35692e-18;2.145694e-18;2.220446e-16;3.502613e-18;1.150631;2.220446e-16;-2.220446e-16;0
13.982371;-28.787903;0.881113;0;0;0;0;2.220446e-16;0;1.357171e-18;0;0;0;0;2.220529e-16;-8.294935e-21;1.110306e-16;45;0;1.480408e-16;1.48038e-16;2.220446e-16;2.714343e-18;0;0;-2.714343e-18;0.86311;2.220446e-16;-2.220446e-16;0
15.595357;-28.787903;0.54764;0;0;0;0;0;0;0;0;0;0;0;0;0;0;45;0;0;0;0;0;0;0;0;0.530913;0;0;0
17.208343;-28.787903;0.163632;0;0;0;0;0;2.220446e-16;1.297011e-17;0;0;0;0;2.227997e-16;-7.550452e-19;1.117774e-16;45;0;1.490365e-16;1.487854e-16;0;2.172404e-17;4.216182e-18;2.220446e-16;-1.750786e-17;0.148983;2.220446e-16;-2.220446e-16;0
18.821329;-28.787903;-0.270414;0;0;0;0;0;0;1.08612e-17;0;0;0;0;1.08612e-17;-1.08612e-17;1.08612e-17;45;0;1.44816e-17;1.254143e-17;0;2.17224e-17;0;0;-2.17224e-17;-0.283742;0;0;0
20.434315;-28.787903;-0.753018;0;0;0;0;-1.110223e-16;0;-2.307532e-17;0;0;0;0;4.605057e-18;-1.156274e-16;6.011621e-17;45;0;8.015495e-17;7.866487e-17;-1.110223e-16;-4.615065e-17;0;0;4.615065e-17;-0.7661;-1.110223e-16;1.110223e-16;0
22.047301;-28.787903;-1.28172;0;0;0;0;0;0;0;0;0;0;0;0;0;0;45;0;0;0;0;0;0;0;0;-1.297097;0;0;0
23.660287;-28.787903;-1.85892;0;0;0;0;2.220446e-16;0;-1.086235e-17;0;0;0;0;2.225747e-16;-5.301168e-19;1.115524e-16;45;0;1.487366e-16;1.485602e-16;2.220446e-16;-2.17247e-17;0;0;2.17247e-17;-1.876383;2.220446e-16;-2.220446e-16;0
25.273273;-28.787903;-2.486982;0;0;0;0;-1.110223e-16;2.220446e-16;-7.015456e-19;0;0;0;0;2.220461e-16;-1.110238e-16;1.665349e-16;45;0;2.220466e-16;1.958266e-16;-1.110223e-16;-5.432213e-18;4.029122e-18;2.220446e-16;9.461335e-18;-2.505639;1.110223e-16;-1.110223e-16;0
26.886259;-28.787903;-3.16677;0;0;0;0;2.220446e-16;2.220446e-16;-6.157386e-18;0;0;0;0;2.28202e-16;2.158872e-16;6.157386e-18;45;0;8.209849e-18;1.482004e-16;2.220446e-16;-1.629818e-17;3.983407e-18;2.220446e-16;2.028159e-17;-3.185754;4.440892e-16;-4.440892e-16;0
28.499246;-28.787903;-3.896585;0;0;0;0;-1.110223e-16;-1.110223e-16;-1.554838e-17;0;0;0;0;-9.547392e-17;-1.265707e-16;1.554838e-17;45;0;2.073118e-17;7.616126e-17;-1.110223e-16;-2.715779e-17;-3.938972e-18;-1.110223e-16;2.321882e-17;-3.915204;-2.220446e-16;2.220446e-16;0
30.112232;-28.787903;-4.671687;0;0;0;0;-1.110223e-16;2.220446e-16;1.203292e-17;0;0;0;0;2.224788e-16;-1.114565e-16;1.669676e-16;45;0;2.226235e-16;1.963172e-16;-1.110223e-16;1.629652e-17;7.769323e-18;2.220446e-16;-8.527196e-18;-4.699218;1.110223e-16;-1.110223e-16;0
31.725218;-28.787903;-5.515947;0;0;0;0;2.220446e-16;2.220446e-16;1.740181e-17;0;0;0;0;2.394464e-16;2.046428e-16;1.740181e-17;45;0;2.320241e-17;1.493873e-16;2.220446e-16;2.716684e-17;7.636771e-18;2.220446e-16;-1.953007e-17;-5.542911;4.440892e-16;-4.440892e-16;0
33.338204;-28.787903;-6.428322;0;0;0;0;0;0;0;0;0;0;0;0;0;0;45;0;0;0;0;0;0;0;0;-6.46577;0;0;0
34.95119;-28.787903;-7.444854;0;0;0;0;-1.110223e-16;2.220446e-16;-9.921787e-18;0;0;0;0;2.223399e-16;-1.113176e-16;1.668288e-16;45;0;2.224383e-16;1.961598e-16;-1.110223e-16;-2.717866e-17;7.335082e-18;2.220446e-16;3.451374e-17;-7.452804;1.110223e-16;-1.110223e-16;0
36.564176;-28.787903;-8.483073;0;0;0;0;0;-1.110223e-16;-1.921222e-17;0;0;0;0;3.230633e-18;-1.142529e-16;5.874178e-17;45;0;7.832238e-17;7.726802e-17;0;-2.809055e-17;-1.033388e-17;-1.110223e-16;1.775667e-17;-8.481979;-1.110223e-16;1.110223e-16;0
-42.47214;-30.400889;-17.281879;0;0;0;0;2.220446e-16;0;-5.017013e-18;0;0;0;0;2.221579e-16;-1.132997e-19;1.111356e-16;45;0;1.481808e-16;1.48143e-16;2.220446e-16;-1.003403e-17;0;0;1.003403e-17;-17.285542;2.220446e-16;-2.220446e-16;0
-40.859154;-30.400889;-15.640044;0;0;0;0;2.220446e-16;0;-2.722601e-18;0;0;0;0;2.22078e-16;-3.337816e-20;1.110557e-16;45;0;1.480742e-16;1.480631e-16;2.220446e-16;-5.445201e-18;0;0;5.445201e-18;-15.677828;2.220446e-16;-2.220446e-16;0
-39.246168;-30.400889;-14.107935;0;0;0;0;0;2.220446e-16;1.858334e-17;0;0;0;0;2.235891e-16;-1.544532e-18;1.125668e-16;45;0;1.500891e-16;1.495769e-16;0;4.356592e-17;-6.399238e-18;2.220446e-16;-4.996516e-17;-14.140668;2.220446e-16;-2.220446e-16;0
-37.633182;-30.400889;-12.676876;0;0;0;0;-2.220446e-16;2.220446e-16;-5.80155e-19;0;0;0;0;2.220454e-16;-2.220454e-16;2.220454e-16;45;0;2.960605e-16;2.563959e-16;-2.220446e-16;5.443787e-18;-6.604097e-18;2.220446e-16;-1.204788e-17;-12.708361;0;0;0
-36.020196;-30.400889;-11.346373;0;0;0;0;0;2.220446e-16;-3.604868e-17;0;0;0;0;2.277505e-16;-5.705839e-18;1.167281e-16;45;0;1.556375e-16;1.537709e-16;0;-6.531256e-17;-6.784803e-18;2.220446e-16;5.852776e-17;-11.37003;2.220446e-16;-2.220446e-16;0
-34.40721;-30.400889;-10.089848;0;0;0;0;-1.110223e-16;-1.110223e-16;4.460448e-18;0;0;0;0;-1.065619e-16;-1.154828e-16;4.460448e-18;45;0;5.947264e-18;7.419385e-17;-1.110223e-16;5.439303e-18;3.481593e-18;-1.110223e-16;-1.957709e-18;-10.124088;-2.220446e-16;2.220446e-16;0
-32.794224;-30.400889;-8.931359;0;0;0;0;-1.110223e-16;0;1.359805e-17;0;0;0;0;1.641233e-18;-1.126635e-16;5.715238e-17;45;0;7.620318e-17;7.566203e-17;-1.110223e-16;2.719611e-17;0;0;-2.719611e-17;-8.971304;-1.110223e-16;1.110223e-16;0
-31.181238;-30.400889;-7.881179;0;0;0;0;2.220446e-16;0;2.469468e-22;0;0;0;0;2.220446e-16;-2.746469e-28;1.110223e-16;45;0;1.480297e-16;1.480297e-16;2.220446e-16;4.938936e-22;0;0;-4.938936e-22;-7.901;2.220446e-16;-2.220446e-16;0
-29.568251;-30.400889;-6.877061;0;0;0;0;0;0;0;0;0;0;0;0;0;0;45;0;0;0;0;0;0;0;0;-6.905351;0;0;0
-27.955265;-30.400889;-5.946628;0;0;0;0;2.220446e-16;0;-1.358678e-17;0;0;0;0;2.228729e-16;-8.282775e-19;1.118506e-16;45;0;1.491341e-16;1.488588e-16;2.220446e-16;-2.717356e-17;0;0;2.717356e-17;-5.977618;2.220446e-16;-2.220446e-16;0
-26.342279;-30.400889;-5.10081;0;0;0;0;2.220446e-16;-1.110223e-16;-7.820213e-19;0;0;0;0;2.220464e-16;-1.110241e-16;1.665353e-16;45;0;2.22047e-16;1.95827e-16;2.220446e-16;-5.434351e-18;3.870309e-18;-1.110223e-16;9.30466e-18;-5.117138;1.110223e-16;-1.110223e-16;0
-24.729293;-30.400889;-4.295653;0;0;0;0;0;-1.110223e-16;1.282832e-17;0;0;0;0;1.462999e-18;-1.124853e-16;5.697415e-17;45;0;7.596553e-17;7.548259e-17;0;2.174083e-17;3.915812e-18;-1.110223e-16;-1.782502e-17;-4.316328;-1.110223e-16;1.110223e-16;0
-23.116307;-30.400889;-3.544549;0;0;0;0;2.220446e-16;0;-2.717131e-18;0;0;0;0;2.220779e-16;-3.324419e-20;1.110555e-16;45;0;1.480741e-16;1.48063e-16;2.220446e-16;-5.434261e-18;0;0;5.434261e-18;-3.566585;2.220446e-16;-2.220446e-16;0
-21.503321;-30.400889;-2.854855;0;0;0;0;-1.110223e-16;2.220446e-16;1.157537e-17;0;0;0;0;2.224464e-16;-1.114241e-16;1.669353e-16;45;0;2.225804e-16;1.962806e-16;-1.110223e-16;2.716904e-17;-4.018305e-18;2.220446e-16;-3.118734e-17;-2.871238;1.110223e-16;-1.110223e-16;0
-19.890335;-30.400889;-2.212082;0;0;0;0;0;2.220446e-16;-2.035538e-18;0;0;0;0;2.220633e-16;-1.865871e-20;1.11041e-16;45;0;1.480546e-16;1.480484e-16;0;0;-4.071076e-18;2.220446e-16;-4.071076e-18;-2.237576;2.220446e-16;-2.220446e-16;0
-18.277349;-30.400889;-1.640632;0;0;0;0;-1.110223e-16;-1.110223e-16;-7.444635e-18;0;0;0;0;-1.035777e-16;-1.184669e-16;7.444635e-18;45;0;9.926179e-18;7.45124e-17;-1.110223e-16;-1.899991e-17;4.110644e-18;-1.110223e-16;2.311056e-17;-1.653547;-2.220446e-16;2.220446e-16;0
-16.664363;-30.400889;-1.095887;0;0;0;0;0;0;9.50177e-18;0;0;0;0;9.50177e-18;-9.50177e-18;9.50177e-18;45;0;1.266903e-17;1.09717e-17;0;1.900354e-17;0;0;-1.900354e-17;-1.109175;0;0;0
-15.051377;-30.400889;-0.574804;0;0;0;0;-1.110223e-16;2.220446e-16;2.098208e-17;0;0;0;0;2.233612e-16;-1.123389e-16;1.6785e-16;45;0;2.238001e-16;1.97318e-16;-1.110223e-16;4.615458e-17;-4.190429e-18;2.220446e-16;-5.034501e-17;-0.629483;1.110223e-16;-1.110223e-16;0
-13.438391;-30.400889;-0.203883;0;0;0;0;-1.110223e-16;2.220446e-16;-1.056543e-17;0;0;0;0;2.223794e-16;-1.113571e-16;1.668683e-16;45;0;2.22491e-16;1.962046e-16;-1.110223e-16;-1.900465e-17;-2.126208e-18;2.220446e-16;1.687844e-17;-0.224629;1.110223e-16;-1.110223e-16;0
-11.825405;-30.400889;0.114535;0;0;0;0;0;2.220446e-16;-1.19209e-17;0;0;0;0;2.226828e-16;-6.381623e-19;1.116605e-16;45;0;1.488806e-16;1.486684e-16;0;-2.171342e-17;-2.128369e-18;2.220446e-16;1.958505e-17;0.124867;2.220446e-16;-2.220446e-16;0
-10.212419;-30.400889;0.470767;0;0;0;0;2.220446e-16;-1.110223e-16;2.141251e-17;0;0;0;0;2.234156e-16;-1.123933e-16;1.679044e-16;45;0;2.238725e-16;1.973797e-16;2.220446e-16;4.070284e-17;2.12218e-18;-1.110223e-16;-3.858066e-17;0.471305;1.110223e-16;-1.110223e-16;0
-8.599433;-30.400889;0.83617;0;0;0;0;-1.110223e-16;-1.110223e-16;1.327329e-17;0;0;0;0;-9.774901e-17;-1.242956e-16;1.327329e-17;45;0;1.769772e-17;7.55851e-17;-1.110223e-16;2.44203e-17;2.126283e-18;-1.110223e-16;-2.229402e-17;0.820022;-2.220446e-16;2.220446e-16;0
-6.986447;-30.400889;1.162828;0;0;0;0;-1.110223e-16;2.220446e-16;9.781746e-18;0;0;0;0;2.223316e-16;-1.113093e-16;1.668205e-16;45;0;2.224273e-16;1.961504e-16;-1.110223e-16;2.170438e-17;-2.140886e-18;2.220446e-16;-2.384526e-17;1.132708;1.110223e-16;-1.110223e-16;0
-5.373461;-30.400889;1.409912;0;0;0;0;-1.110223e-16;2.220446e-16;1.044879e-17;0;0;0;0;2.223721e-16;-1.113498e-16;1.668609e-16;45;0;2.224812e-16;1.961963e-16;-1.110223e-16;2.305536e-17;-2.157769e-18;2.220446e-16;-2.521313e-17;1.376335;1.110223e-16;-1.110223e-16;0
-3.760475;-30.400889;1.565099;0;0;0;0;0;2.220446e-16;-8.809495e-19;0;0;0;0;2.220481e-16;-3.495063e-21;1.110258e-16;45;0;1.480344e-16;1.480332e-16;0;-6.778102e-19;-1.084089e-18;2.220446e-16;-4.062787e-19;1.542613;2.220446e-16;-2.220446e-16;0
-2.147489;-30.400889;1.658161;0;0;0;0;0;0;0;0;0;0;0;0;0;0;45;0;0;0;0;0;0;0;0;1.65108;0;0;0
-0.534503;-30.400889;1.732115;0;0;0;0;-1.110223e-16;0;3.389183e-19;0;0;0;0;1.034608e-21;-1.110233e-16;5.551218e-17;45;0;7.401625e-17;7.40159e-17;-1.110223e-16;6.778365e-19;0;0;-6.778365e-19;1.732839;-1.110223e-16;1.110223e-16;0
1.078483;-30.400889;1.808574;0;0;0;0;-1.110223e-16;-1.110223e-16;6.105179e-19;0;0;0;0;-1.104118e-16;-1.116328e-16;6.105179e-19;45;0;8.140239e-19;7.401823e-17;-1.110223e-16;6.778274e-19;5.432084e-19;-1.110223e-16;-1.34619e-19;1.802265;-2.220446e-16;2.220446e-16;0
2.691469;-30.400889;1.866511;0;0;0;0;-1.110223e-16;0;2.178137e-17;0;0;0;0;4.120351e-18;-1.151427e-16;5.96315e-17;45;0;7.950867e-17;7.817143e-17;-1.110223e-16;4.356275e-17;0;0;-4.356275e-17;1.842681;-1.110223e-16;1.110223e-16;0
4.304455;-30.400889;1.855158;0;0;0;0;0;2.220446e-16;-1.058132e-17;0;0;0;0;2.225477e-16;-5.031028e-19;1.115254e-16;45;0;1.487005e-16;1.485331e-16;0;-2.17061e-17;5.434517e-19;2.220446e-16;2.224955e-17;1.830618;2.220446e-16;-2.220446e-16;0
5.917441;-30.400889;1.774298;0;0;0;0;-1.110223e-16;0;-3.392234e-19;0;0;0;0;1.036471e-21;-1.110233e-16;5.551219e-17;45;0;7.401625e-17;7.40159e-17;-1.110223e-16;-6.784468e-19;0;0;6.784468e-19;1.760989;-1.110223e-16;1.110223e-16;0
7.530427;-30.400889;1.657123;0;0;0;0;-1.110223e-16;0;1.051575e-17;0;0;0;0;9.872465e-19;-1.120095e-16;5.649839e-17;45;0;7.53312e-17;7.500428e-17;-1.110223e-16;2.10315e-17;0;0;-2.10315e-17;1.642857;-1.110223e-16;1.110223e-16;0
9.143413;-30.400889;1.497895;0;0;0;0;0;-1.110223e-16;1.031237e-17;0;0;0;0;9.497457e-19;-1.119721e-16;5.64609e-17;45;0;7.52812e-17;7.496662e-17;0;2.170526e-17;-1.080515e-18;-1.110223e-16;-2.278577e-17;1.483543;-1.110223e-16;1.110223e-16;0
10.756399;-30.400889;1.293901;0;0;0;0;0;0;-3.255232e-17;0;0;0;0;3.255232e-17;-3.255232e-17;3.255232e-17;45;0;4.34031e-17;3.758818e-17;0;-6.510464e-17;0;0;6.510464e-17;1.280554;0;0;0
12.369385;-30.400889;1.049437;0;0;0;0;0;-1.110223e-16;2.062811e-17;0;0;0;0;3.708835e-18;-1.147311e-16;5.921998e-17;45;0;7.895998e-17;7.775319e-17;0;4.34022e-17;-2.145985e-18;-1.110223e-16;-4.554819e-17;1.035973;-1.110223e-16;1.110223e-16;0
13.982371;-30.400889;0.767735;0;0;0;0;0;0;0;0;0;0;0;0;0;0;45;0;0;0;0;0;0;0;0;0.750122;0;0;0
15.595357;-30.400889;0.439822;0;0;0;0;-1.110223e-16;0;2.1715e-17;0;0;0;0;4.09614e-18;-1.151184e-16;5.960729e-17;45;0;7.947639e-17;7.81468e-17;-1.110223e-16;4.343e-17;0;0;-4.343e-17;0.419824;-1.110223e-16;1.110223e-16;0
17.208343;-30.400889;0.05978;0;0;0;0;0;-1.110223e-16;-1.191571e-17;0;0;0;0;1.264477e-18;-1.122868e-16;5.677563e-17;45;0;7.570084e-17;7.528289e-17;0;-2.172314e-17;-2.108276e-18;-1.110223e-16;1.961486e-17;0.038992;-1.110223e-16;1.110223e-16;0
18.821329;-30.400889;-0.375008;0;0;0;0;0;0;2.172518e-17;0;0;0;0;2.172518e-17;-2.172518e-17;2.172518e-17;45;0;2.896691e-17;2.508608e-17;0;4.345037e-17;0;0;-4.345037e-17;-0.395696;0;0;0
20.434315;-30.400889;-0.865994;0;0;0;0;0;2.220446e-16;3.429974e-18;0;0;0;0;2.220976e-16;-5.297096e-20;1.110753e-16;45;0;1.481004e-16;1.480827e-16;0;2.715084e-18;4.144864e-18;2.220446e-16;1.429781e-18;-0.881558;2.220446e-16;-2.220446e-16;0
22.047301;-30.400889;-1.39911;0;0;0;0;2.220446e-16;0;2.714435e-18;0;0;0;0;2.220778e-16;-3.317827e-20;1.110555e-16;45;0;1.48074e-16;1.480629e-16;2.220446e-16;5.42887e-18;0;0;-5.42887e-18;-1.415263;2.220446e-16;-2.220446e-16;0
23.660287;-30.400889;-1.976175;0;0;0;0;0;0;0;0;0;0;0;0;0;0;45;0;0;0;0;0;0;0;0;-1.994345;0;0;0
25.273273;-30.400889;-2.601575;0;0;0;0;0;2.220446e-16;2.014305e-18;0;0;0;0;2.220629e-16;-1.82715e-20;1.110406e-16;45;0;1.480541e-16;1.48048e-16;0;0;4.028609e-18;2.220446e-16;4.028609e-18;-2.623389;2.220446e-16;-2.220446e-16;0
26.886259;-30.400889;-3.286197;0;0;0;0;0;0;2.172301e-17;0;0;0;0;2.172301e-17;-2.172301e-17;2.172301e-17;45;0;2.896401e-17;2.508357e-17;0;4.344601e-17;0;0;-4.344601e-17;-3.305373;0;0;0
28.499246;-30.400889;-4.024602;0;0;0;0;0;0;-3.257994e-17;0;0;0;0;3.257994e-17;-3.257994e-17;3.257994e-17;45;0;4.343992e-17;3.762007e-17;0;-6.515988e-17;0;0;6.515988e-17;-4.038699;0;0;0
30.112232;-30.400889;-4.805086;0;0;0;0;0;0;2.171938e-17;0;0;0;0;2.171938e-17;-2.171938e-17;2.171938e-17;45;0;2.895917e-17;2.507938e-17;0;4.343876e-17;0;0;-4.343876e-17;-4.825331;0;0;0
31.725218;-30.400889;-5.647809;0;0;0;0;-1.110223e-16;2.220446e-16;3.369497e-17;0;0;0;0;2.254192e-16;-1.143969e-16;1.69908e-16;45;0;2.26544e-16;1.996527e-16;-1.110223e-16;5.974712e-17;7.642819e-18;2.220446e-16;-5.210431e-17;-5.668416;1.110223e-16;-1.110223e-16;0
33.338204;-30.400889;-6.553093;0;0;0;0;0;0;5.434526e-18;0;0;0;0;5.434526e-18;-5.434526e-18;5.434526e-18;45;0;7.246034e-18;6.27525e-18;0;1.086905e-17;0;0;-1.086905e-17;-6.589691;0;0;0
34.95119;-30.400889;-7.569534;0;0;0;0;-1.110223e-16;-1.110223e-16;-2.085766e-17;0;0;0;0;-9.016465e-17;-1.3188e-16;2.085766e-17;45;0;2.781021e-17;7.78348e-17;-1.110223e-16;-3.805329e-17;-3.662017e-18;-1.110223e-16;3.439127e-17;-7.578884;-2.220446e-16;2.220446e-16;0
36.564176;-30.400889;-8.618651;0;0;0;0;-1.110223e-16;0;-5.049547e-18;0;0;0;0;2.291917e-19;-1.112515e-16;5.574034e-17;45;0;7.432046e-17;7.424418e-17;-1.110223e-16;-1.009909e-17;0;0;1.009909e-17;-8.615047;-1.110223e-16;1.110223e-16;0
-42.47214;-32.013875;-17.402524;0;0;0;0;0;2.220446e-16;-6.441636e-18;0;0;0;0;2.222313e-16;-1.867184e-19;1.11209e-16;45;0;1.482787e-16;1.482165e-16;0;0;-1.288327e-17;2.220446e-16;-1.288327e-17;-17.396717;2.220446e-16;-2.220446e-16;0
-40.859154;-32.013875;-15.752552;0;0;0;0;-2.220446e-16;0;-1.633877e-17;0;0;0;0;1.19582e-18;-2.232404e-16;1.122181e-16;45;0;1.496242e-16;1.492272e-16;-2.220446e-16;-3.267754e-17;0;0;3.267754e-17;-15.787179;-2.220446e-16;2.220446e-16;0
-39.246168;-32.013875;-14.210009;0;0;0;0;-2.220446e-16;2.220446e-16;2.248903e-18;0;0;0;0;2.22056e-16;-2.22056e-16;2.22056e-16;45;0;2.960746e-16;2.564082e-16;-2.220446e-16;1.088925e-17;-6.391445e-18;2.220446e-16;-1.72807e-17;-14.247536;0;0;0
-37.633182;-32.013875;-12.777109;0;0;0;0;0;0;3.267021e-17;0;0;0;0;3.267021e-17;-3.267021e-17;3.267021e-17;45;0;4.356027e-17;3.772431e-17;0;6.534041e-17;0;0;-6.534041e-17;-12.81555;0;0;0
-36.020196;-32.013875;-11.456842;0;0;0;0;0;-1.110223e-16;1.700696e-18;0;0;0;0;2.604602e-20;-1.110483e-16;5.55372e-17;45;0;7.40496e-17;7.404092e-17;0;0;3.401392e-18;-1.110223e-16;3.401392e-18;-11.48078;-1.110223e-16;1.110223e-16;0
-34.40721;-32.013875;-10.21281;0;0;0;0;2.220446e-16;-1.110223e-16;9.904523e-18;0;0;0;0;2.223389e-16;-1.113166e-16;1.668277e-16;45;0;2.22437e-16;1.961586e-16;2.220446e-16;1.632362e-17;3.485432e-18;-1.110223e-16;-1.283818e-17;-10.238511;1.110223e-16;-1.110223e-16;0
-32.794224;-32.013875;-9.053976;0;0;0;0;0;-1.110223e-16;-1.996464e-17;0;0;0;0;3.481006e-18;-1.145033e-16;5.899216e-17;45;0;7.865621e-17;7.752193e-17;0;-4.351418e-17;3.584906e-18;-1.110223e-16;4.709909e-17;-9.086187;-1.110223e-16;1.110223e-16;0
-31.181238;-32.013875;-8.00124;0;0;0;0;0;0;-8.857042e-23;0;0;0;0;8.857042e-23;-8.857042e-23;8.857042e-23;45;0;1.180939e-22;1.022723e-22;0;-1.771408e-22;0;0;1.771408e-22;-8.015397;0;0;0
-29.568251;-32.013875;-7.001427;0;0;0;0;0;-1.110223e-16;-9.007782e-18;0;0;0;0;7.260967e-19;-1.117484e-16;5.623725e-17;45;0;7.4983e-17;7.474214e-17;0;-2.174691e-17;3.731346e-18;-1.110223e-16;2.547826e-17;-7.021804;-1.110223e-16;1.110223e-16;0
-27.955265;-32.013875;-6.072707;0;0;0;0;2.220446e-16;0;1.902184e-17;0;0;0;0;2.236624e-16;-1.617752e-18;1.126401e-16;45;0;1.501867e-16;1.496504e-16;2.220446e-16;3.804368e-17;0;0;-3.804368e-17;-6.095897;2.220446e-16;-2.220446e-16;0
-26.342279;-32.013875;-5.220246;0;0;0;0;0;0;-1.086789e-17;0;0;0;0;1.086789e-17;-1.086789e-17;1.086789e-17;45;0;1.449052e-17;1.254916e-17;0;-2.173578e-17;0;0;2.173578e-17;-5.234369;0;0;0
-24.729293;-32.013875;-4.412666;0;0;0;0;2.220446e-16;0;1.383103e-22;0;0;0;0;2.220446e-16;-8.61584e-29;1.110223e-16;45;0;1.480297e-16;1.480297e-16;2.220446e-16;2.766205e-22;0;0;-2.766205e-22;-4.429913;2.220446e-16;-2.220446e-16;0
-23.116307;-32.013875;-3.658225;0;0;0;0;-1.110223e-16;-1.110223e-16;-8.887297e-18;0;0;0;0;-1.02135e-16;-1.199096e-16;8.887297e-18;45;0;1.184973e-17;7.47229e-17;-1.110223e-16;-2.173933e-17;3.964737e-18;-1.110223e-16;2.570407e-17;-3.676383;-2.220446e-16;2.220446e-16;0
-21.503321;-32.013875;-2.962309;0;0;0;0;0;0;2.174035e-17;0;0;0;0;2.174035e-17;-2.174035e-17;2.174035e-17;45;0;2.898714e-17;2.51036e-17;0;4.348071e-17;0;0;-4.348071e-17;-2.980851;0;0;0
-19.890335;-32.013875;-2.33045;0;0;0;0;0;-1.110223e-16;1.426113e-17;0;0;0;0;1.802613e-18;-1.128249e-16;5.731376e-17;45;0;7.641835e-17;7.582462e-17;0;2.444318e-17;4.079072e-18;-1.110223e-16;-2.036411e-17;-2.351414;-1.110223e-16;1.110223e-16;0
-18.277349;-32.013875;-1.771642;0;0;0;0;-1.110223e-16;-1.110223e-16;4.770377e-18;0;0;0;0;-1.062519e-16;-1.157927e-16;4.770377e-18;45;0;6.360502e-18;7.421955e-17;-1.110223e-16;5.427294e-18;4.11346e-18;-1.110223e-16;-1.313834e-18;-1.772279;-2.220446e-16;2.220446e-16;0
-16.664363;-32.013875;-1.22169;0;0;0;0;-1.110223e-16;-1.110223e-16;1.562805e-17;0;0;0;0;-9.539425e-17;-1.266504e-16;1.562805e-17;45;0;2.08374e-17;7.6183e-17;-1.110223e-16;2.71317e-17;4.124393e-18;-1.110223e-16;-2.300731e-17;-1.227823;-2.220446e-16;2.220446e-16;0
-15.051377;-32.013875;-0.691622;0;0;0;0;0;2.220446e-16;-2.093212e-18;0;0;0;0;2.220643e-16;-1.973093e-20;1.11042e-16;45;0;1.48056e-16;1.480495e-16;0;0;-4.186424e-18;2.220446e-16;-4.186424e-18;-0.743751;2.220446e-16;-2.220446e-16;0
-13.438391;-32.013875;-0.316537;0;0;0;0;-1.110223e-16;-1.110223e-16;2.419977e-18;0;0;0;0;-1.086023e-16;-1.134423e-16;2.419977e-18;45;0;3.226637e-18;7.40676e-17;-1.110223e-16;2.713932e-18;2.126023e-18;-1.110223e-16;-5.879092e-19;-0.336123;-2.220446e-16;2.220446e-16;0
-11.825405;-32.013875;-4.119821e-04;0;0;0;0;-1.110223e-16;2.220446e-16;-2.277559e-17;0;0;0;0;2.235948e-16;-1.125725e-16;1.680837e-16;45;0;2.241116e-16;1.97583e-16;-1.110223e-16;-4.342187e-17;-2.129314e-18;2.220446e-16;4.129255e-17;0.012293;1.110223e-16;-1.110223e-16;0
-10.212419;-32.013875;0.349833;0;0;0;0;2.220446e-16;0;9.497123e-18;0;0;0;0;2.224501e-16;-4.054633e-19;1.114278e-16;45;0;1.485704e-16;1.484354e-16;2.220446e-16;1.899425e-17;0;0;-1.899425e-17;0.356558;2.220446e-16;-2.220446e-16;0
-8.599433;-32.013875;0.714421;0;0;0;0;0;-1.110223e-16;-9.788454e-18;0;0;0;0;8.564082e-19;-1.118787e-16;5.636756e-17;45;0;7.515674e-17;7.487291e-17;0;-2.170322e-17;2.126312e-18;-1.110223e-16;2.382953e-17;0.703805;-1.110223e-16;1.110223e-16;0
-6.986447;-32.013875;1.041613;0;0;0;0;0;0;1.084865e-17;0;0;0;0;1.084865e-17;-1.084865e-17;1.084865e-17;45;0;1.446487e-17;1.252695e-17;0;2.169731e-17;0;0;-2.169731e-17;1.015669;0;0;0
-5.373461;-32.013875;1.287831;0;0;0;0;0;0;0;0;0;0;0;0;0;0;45;0;0;0;0;0;0;0;0;1.258086;0;0;0
-3.760475;-32.013875;1.443538;0;0;0;0;2.220446e-16;2.220446e-16;-8.808829e-19;0;0;0;0;2.229255e-16;2.211637e-16;8.808829e-19;45;0;1.174511e-18;1.480332e-16;2.220446e-16;-6.776914e-19;-1.084074e-18;2.220446e-16;-4.06383e-19;1.423559;4.440892e-16;-4.440892e-16;0
-2.147489;-32.013875;1.538168;0;0;0;0;2.220446e-16;0;1.050738e-17;0;0;0;0;2.225407e-16;-4.961114e-19;1.115184e-16;45;0;1.486912e-16;1.485261e-16;2.220446e-16;2.101476e-17;0;0;-2.101476e-17;1.532142;2.220446e-16;-2.220446e-16;0
-0.534503;-32.013875;1.612257;0;0;0;0;2.220446e-16;0;1.050874e-17;0;0;0;0;2.225408e-16;-4.9624e-19;1.115185e-16;45;0;1.486914e-16;1.485262e-16;2.220446e-16;2.101748e-17;0;0;-2.101748e-17;1.614309;2.220446e-16;-2.220446e-16;0
1.078483;-32.013875;1.687644;0;0;0;0;2.220446e-16;0;-1.101784e-17;0;0;0;0;2.2259e-16;-5.45365e-19;1.115677e-16;45;0;1.487569e-16;1.485754e-16;2.220446e-16;-2.203568e-17;0;0;2.203568e-17;1.684508;2.220446e-16;-2.220446e-16;0
2.691469;-32.013875;1.748224;0;0;0;0;2.220446e-16;-1.110223e-16;1.083165e-17;0;0;0;0;2.223965e-16;-1.113742e-16;1.668853e-16;45;0;2.225138e-16;1.962239e-16;2.220446e-16;2.15274e-17;1.359029e-19;-1.110223e-16;-2.13915e-17;1.726336;1.110223e-16;-1.110223e-16;0
4.304455;-32.013875;1.741375;0;0;0;0;0;-1.110223e-16;1.071302e-17;0;0;0;0;1.024295e-18;-1.120466e-16;5.653545e-17;45;0;7.538059e-17;7.504149e-17;0;2.169777e-17;-2.717393e-19;-1.110223e-16;-2.196951e-17;1.716517;-1.110223e-16;1.110223e-16;0
5.917441;-32.013875;1.663563;0;0;0;0;0;2.220446e-16;1.139313e-17;0;0;0;0;2.226277e-16;-5.830512e-19;1.116054e-16;45;0;1.488071e-16;1.486132e-16;0;2.170088e-17;1.08537e-18;2.220446e-16;-2.061551e-17;1.648256;2.220446e-16;-2.220446e-16;0
7.530427;-32.013875;1.546624;0;0;0;0;-1.110223e-16;2.220446e-16;1.105459e-17;0;0;0;0;2.224111e-16;-1.113888e-16;1.669e-16;45;0;2.225333e-16;1.962405e-16;-1.110223e-16;2.102581e-17;1.08337e-18;2.220446e-16;-1.994244e-17;1.530142;1.110223e-16;-1.110223e-16;0
9.143413;-32.013875;1.38592;0;0;0;0;0;-1.110223e-16;-1.139249e-17;0;0;0;0;1.156976e-18;-1.121793e-16;5.666813e-17;45;0;7.55575e-17;7.517481e-17;0;-2.170464e-17;-1.080331e-18;-1.110223e-16;2.062431e-17;1.369065;-1.110223e-16;1.110223e-16;0
10.756399;-32.013875;1.177908;0;0;0;0;2.220446e-16;0;6.780697e-19;0;0;0;0;2.220467e-16;-2.070639e-21;1.110244e-16;45;0;1.480325e-16;1.480318e-16;2.220446e-16;1.356139e-18;0;0;-1.356139e-18;1.163682;2.220446e-16;-2.220446e-16;0
12.369385;-32.013875;0.92928;0;0;0;0;0;2.220446e-16;1.259841e-17;0;0;0;0;2.227571e-16;-7.125245e-19;1.117348e-16;45;0;1.489798e-16;1.487428e-16;0;2.305121e-17;2.145606e-18;2.220446e-16;-2.090561e-17;0.917125;2.220446e-16;-2.220446e-16;0
13.982371;-32.013875;0.64715;0;0;0;0;-1.110223e-16;0;9.491137e-18;0;0;0;0;8.055389e-19;-1.118278e-16;5.631669e-17;45;0;7.508892e-17;7.482185e-17;-1.110223e-16;1.898227e-17;0;0;-1.898227e-17;0.631253;-1.110223e-16;1.110223e-16;0
15.595357;-32.013875;0.323521;0;0;0;0;0;0;0;0;0;0;0;0;0;0;45;0;0;0;0;0;0;0;0;0.302836;0;0;0
17.208343;-32.013875;-0.051976;0;0;0;0;0;-1.110223e-16;2.065075e-17;0;0;0;0;3.716727e-18;-1.14739e-16;5.922788e-17;45;0;7.89705e-17;7.776121e-17;0;4.341035e-17;-2.108841e-18;-1.110223e-16;-4.551919e-17;-0.07589;-1.110223e-16;1.110223e-16;0
18.821329;-32.013875;-0.486067;0;0;0;0;0;2.220446e-16;1.430132e-17;0;0;0;0;2.229619e-16;-9.173219e-19;1.119396e-16;45;0;1.492528e-16;1.48948e-16;0;2.442382e-17;4.178825e-18;2.220446e-16;-2.0245e-17;-0.51078;2.220446e-16;-2.220446e-16;0
20.434315;-32.013875;-0.982204;0;0;0;0;2.220446e-16;2.220446e-16;2.649551e-17;0;0;0;0;2.485401e-16;1.955491e-16;2.649551e-17;45;0;3.532734e-17;1.511583e-16;2.220446e-16;4.884944e-17;4.141578e-18;2.220446e-16;-4.470786e-17;-0.999101;4.440892e-16;-4.440892e-16;0
22.047301;-32.013875;-1.520487;0;0;0;0;-1.110223e-16;-1.110223e-16;6.086823e-18;0;0;0;0;-1.049355e-16;-1.171091e-16;6.086823e-18;45;0;8.115763e-18;7.434783e-17;-1.110223e-16;1.628266e-17;-4.109018e-18;-1.110223e-16;-2.039168e-17;-1.535786;-2.220446e-16;2.220446e-16;0
23.660287;-32.013875;-2.09974;0;0;0;0;-1.110223e-16;0;-2.713651e-18;0;0;0;0;6.628856e-20;-1.110886e-16;5.557744e-17;45;0;7.410325e-17;7.408116e-17;-1.110223e-16;-5.427302e-18;0;0;5.427302e-18;-2.116115;-1.110223e-16;1.110223e-16;0
25.273273;-32.013875;-2.724395;0;0;0;0;-1.110223e-16;0;8.143402e-18;0;0;0;0;5.941329e-19;-1.116164e-16;5.610529e-17;45;0;7.480704e-17;7.460979e-17;-1.110223e-16;1.62868e-17;0;0;-1.62868e-17;-2.745636;-1.110223e-16;1.110223e-16;0
26.886259;-32.013875;-3.409749;0;0;0;0;0;2.220446e-16;2.370753e-17;0;0;0;0;2.245476e-16;-2.503019e-18;1.135253e-16;45;0;1.513671e-16;1.505397e-16;0;4.343863e-17;3.976435e-18;2.220446e-16;-3.946219e-17;-3.429037;2.220446e-16;-2.220446e-16;0
28.499246;-32.013875;-4.151502;0;0;0;0;2.220446e-16;2.220446e-16;-4.215539e-18;0;0;0;0;2.262602e-16;2.178291e-16;4.215539e-18;45;0;5.620718e-18;1.481097e-16;2.220446e-16;-1.629077e-17;7.859694e-18;2.220446e-16;2.415047e-17;-4.165864;4.440892e-16;-4.440892e-16;0
30.112232;-32.013875;-4.936109;0;0;0;0;0;0;1.086014e-17;0;0;0;0;1.086014e-17;-1.086014e-17;1.086014e-17;45;0;1.448019e-17;1.254021e-17;0;2.172029e-17;0;0;-2.172029e-17;-4.955783;0;0;0
31.725218;-32.013875;-5.778647;0;0;0;0;2.220446e-16;0;2.172296e-17;0;0;0;0;2.241498e-16;-2.105229e-18;1.131275e-16;45;0;1.508367e-16;1.501399e-16;2.220446e-16;4.344591e-17;0;0;-4.344591e-17;-5.799573;2.220446e-16;-2.220446e-16;0
33.338204;-32.013875;-6.679039;0;0;0;0;0;2.220446e-16;3.73906e-18;0;0;0;0;2.221076e-16;-6.294505e-20;1.110852e-16;45;0;1.481137e-16;1.480927e-16;0;0;7.47812e-18;2.220446e-16;7.47812e-18;-6.718106;2.220446e-16;-2.220446e-16;0
34.95119;-32.013875;-7.689977;0;0;0;0;0;0;5.436137e-18;0;0;0;0;5.436137e-18;-5.436137e-18;5.436137e-18;45;0;7.248183e-18;6.277111e-18;0;1.087227e-17;0;0;-1.087227e-17;-7.70569;0;0;0
36.564176;-32.013875;-8.743416;0;0;0;0;0;0;1.405119e-17;0;0;0;0;1.405119e-17;-1.405119e-17;1.405119e-17;45;0;1.873492e-17;1.622492e-17;0;2.810238e-17;0;0;-2.810238e-17;-8.742844;0;0;0
-42.47214;-33.626861;-17.505746;0;0;0;0;0;0;1.407693e-17;0;0;0;0;1.407693e-17;-1.407693e-17;1.407693e-17;45;0;1.876924e-17;1.625464e-17;0;2.815386e-17;0;0;-2.815386e-17;-17.500948;0;0;0
-40.859154;-33.626861;-15.860178;0;0;0;0;2.220446e-16;0;-5.446196e-18;0;0;0;0;2.221781e-16;-1.335013e-19;1.111558e-16;45;0;1.482077e-16;1.481633e-16;2.220446e-16;-1.089239e-17;0;0;1.089239e-17;-15.895194;2.220446e-16;-2.220446e-16;0
-39.246168;-33.626861;-14.323745;0;0;0;0;0;-1.110223e-16;1.596481e-18;0;0;0;0;2.295237e-20;-1.110453e-16;5.55341e-17;45;0;7.404547e-17;7.403782e-17;0;-8.480695e-22;3.19381e-18;-1.110223e-16;3.194658e-18;-14.355498;-1.110223e-16;1.110223e-16;0
-37.633182;-33.626861;-12.879384;0;0;0;0;-2.220446e-16;2.220446e-16;-5.790771e-19;0;0;0;0;2.220454e-16;-2.220454e-16;2.220454e-16;45;0;2.960605e-16;2.563959e-16;-2.220446e-16;5.443036e-18;-6.60119e-18;2.220446e-16;-1.204423e-17;-12.923568;0;0;0
-36.020196;-33.626861;-11.561678;0;0;0;0;0;0;1.088727e-17;0;0;0;0;1.088727e-17;-1.088727e-17;1.088727e-17;45;0;1.451635e-17;1.257153e-17;0;2.177453e-17;0;0;-2.177453e-17;-11.589334;0;0;0
-34.40721;-33.626861;-10.326107;0;0;0;0;0;2.220446e-16;-3.488988e-18;0;0;0;0;2.220994e-16;-5.480896e-20;1.110771e-16;45;0;1.481028e-16;1.480845e-16;0;0;-6.977976e-18;2.220446e-16;-6.977976e-18;-10.349819;2.220446e-16;-2.220446e-16;0
-32.794224;-33.626861;-9.167607;0;0;0;0;-1.110223e-16;0;2.720749e-18;0;0;0;0;6.663558e-20;-1.110889e-16;5.557779e-17;45;0;7.410372e-17;7.408151e-17;-1.110223e-16;5.441498e-18;0;0;-5.441498e-18;-9.198396;-1.110223e-16;1.110223e-16;0
-31.181238;-33.626861;-8.111561;0;0;0;0;-1.110223e-16;0;2.448315e-17;0;0;0;0;5.159372e-18;-1.161817e-16;6.067052e-17;45;0;8.089403e-17;7.923026e-17;-1.110223e-16;4.896629e-17;0;0;-4.896629e-17;-8.127277;-1.110223e-16;1.110223e-16;0
-29.568251;-33.626861;-7.113168;0;0;0;0;0;2.220446e-16;7.142272e-18;0;0;0;0;2.222741e-16;-2.295006e-19;1.112518e-16;45;0;1.483357e-16;1.482593e-16;0;2.17565e-17;-7.471961e-18;2.220446e-16;-2.922847e-17;-7.135785;2.220446e-16;-2.220446e-16;0
-27.955265;-33.626861;-6.191267;0;0;0;0;0;0;0;0;0;0;0;0;0;0;45;0;0;0;0;0;0;0;0;-6.212482;0;0;0
-26.342279;-33.626861;-5.339758;0;0;0;0;2.220446e-16;-1.110223e-16;-7.848679e-19;0;0;0;0;2.220465e-16;-1.110242e-16;1.665353e-16;45;0;2.220471e-16;1.95827e-16;2.220446e-16;-5.43491e-18;3.865174e-18;-1.110223e-16;9.300084e-18;-5.351596;1.110223e-16;-1.110223e-16;0
-24.729293;-33.626861;-4.529582;0;0;0;0;-1.110223e-16;0;1.35871e-17;0;0;0;0;1.638628e-18;-1.126609e-16;5.714978e-17;45;0;7.619971e-17;7.565941e-17;-1.110223e-16;2.71742e-17;0;0;-2.71742e-17;-4.544657;-1.110223e-16;1.110223e-16;0
-23.116307;-33.626861;-3.767734;0;0;0;0;2.220446e-16;-1.110223e-16;1.013285e-17;0;0;0;0;2.223526e-16;-1.113303e-16;1.668414e-16;45;0;2.224553e-16;1.961742e-16;2.220446e-16;1.630682e-17;3.958881e-18;-1.110223e-16;-1.234794e-17;-3.786777;1.110223e-16;-1.110223e-16;0
-21.503321;-33.626861;-3.061874;0;0;0;0;-1.110223e-16;0;-8.154297e-18;0;0;0;0;5.957153e-19;-1.11618e-16;5.610687e-17;45;0;7.480916e-17;7.461137e-17;-1.110223e-16;-1.630859e-17;0;0;1.630859e-17;-3.088823;-1.110223e-16;1.110223e-16;0
-19.890335;-33.626861;-2.435576;0;0;0;0;0;0;0;0;0;0;0;0;0;0;45;0;0;0;0;0;0;0;0;-2.461544;0;0;0
-18.277349;-33.626861;-1.893306;0;0;0;0;0;0;1.086402e-17;0;0;0;0;1.086402e-17;-1.086402e-17;1.086402e-17;45;0;1.448535e-17;1.254468e-17;0;2.172803e-17;0;0;-2.172803e-17;-1.887688;0;0;0
-16.664363;-33.626861;-1.349242;0;0;0;0;0;-1.110223e-16;3.41926e-18;0;0;0;0;1.052065e-19;-1.111275e-16;5.561636e-17;45;0;7.415514e-17;7.41201e-17;0;2.715118e-18;4.123401e-18;-1.110223e-16;1.408283e-18;-1.345239;-1.110223e-16;1.110223e-16;0
-15.051377;-33.626861;-0.811577;0;0;0;0;2.220446e-16;2.220446e-16;7.412616e-18;0;0;0;0;2.294572e-16;2.14632e-16;7.412616e-18;45;0;9.883488e-18;1.48277e-16;2.220446e-16;1.900714e-17;-4.181908e-18;2.220446e-16;-2.318905e-17;-0.857936;4.440892e-16;-4.440892e-16;0
-13.438391;-33.626861;-0.428514;0;0;0;0;0;2.220446e-16;9.798516e-18;0;0;0;0;2.224762e-16;-4.31556e-19;1.114539e-16;45;0;1.486051e-16;1.484615e-16;0;2.172235e-17;-2.125318e-18;2.220446e-16;-2.384767e-17;-0.446791;2.220446e-16;-2.220446e-16;0
-11.825405;-33.626861;-0.112294;0;0;0;0;0;0;1.086095e-17;0;0;0;0;1.086095e-17;-1.086095e-17;1.086095e-17;45;0;1.448127e-17;1.254115e-17;0;2.172191e-17;0;0;-2.172191e-17;-0.097938;0;0;0
-10.212419;-33.626861;0.237141;0;0;0;0;-1.110223e-16;2.220446e-16;1.115626e-17;0;0;0;0;2.224179e-16;-1.113956e-16;1.669067e-16;45;0;2.225423e-16;1.962482e-16;-1.110223e-16;2.443593e-17;-2.12342e-18;2.220446e-16;-2.655935e-17;0.244391;1.110223e-16;-1.110223e-16;0
-8.599433;-33.626861;0.59886;0;0;0;0;0;2.220446e-16;9.795432e-18;0;0;0;0;2.224759e-16;-4.312849e-19;1.114536e-16;45;0;1.486048e-16;1.484612e-16;0;2.171774e-17;-2.126873e-18;2.220446e-16;-2.384461e-17;0.589805;2.220446e-16;-2.220446e-16;0
-6.986447;-33.626861;0.922612;0;0;0;0;-1.110223e-16;0;-9.498252e-18;0;0;0;0;8.067384e-19;-1.11829e-16;5.631789e-17;45;0;7.509052e-17;7.482306e-17;-1.110223e-16;-1.89965e-17;0;0;1.89965e-17;0.899742;-1.110223e-16;1.110223e-16;0
-5.373461;-33.626861;1.166774;0;0;0;0;0;0;1.576873e-22;0;0;0;0;1.576873e-22;-1.576873e-22;1.576873e-22;45;0;2.102497e-22;1.820816e-22;0;3.153746e-22;0;0;-3.153746e-22;1.139971;0;0;0
-3.760475;-33.626861;1.322571;0;0;0;0;0;0;1.084749e-17;0;0;0;0;1.084749e-17;-1.084749e-17;1.084749e-17;45;0;1.446333e-17;1.252561e-17;0;2.169499e-17;0;0;-2.169499e-17;1.304672;0;0;0
-2.147489;-33.626861;1.419976;0;0;0;0;0;2.220446e-16;-1.139256e-17;0;0;0;0;2.226276e-16;-5.829938e-19;1.116053e-16;45;0;1.488071e-16;1.486131e-16;0;-2.169941e-17;-1.08572e-18;2.220446e-16;2.061369e-17;1.41515;2.220446e-16;-2.220446e-16;0
-0.534503;-33.626861;1.497392;0;0;0;0;-1.110223e-16;-1.110223e-16;2.715162e-19;0;0;0;0;-1.107508e-16;-1.112938e-16;2.715162e-19;45;0;3.620216e-19;7.401553e-17;-1.110223e-16;-2.256e-24;5.430346e-19;-1.110223e-16;5.430369e-19;1.500298;-2.220446e-16;2.220446e-16;0
1.078483;-33.626861;1.574496;0;0;0;0;0;-1.110223e-16;1.112792e-17;0;0;0;0;1.10438e-18;-1.121267e-16;5.661553e-17;45;0;7.548738e-17;7.512196e-17;0;2.171263e-17;5.43203e-19;-1.110223e-16;-2.116943e-17;1.571728;-1.110223e-16;1.110223e-16;0
2.691469;-33.626861;1.63336;0;0;0;0;2.220446e-16;0;-8.476897e-20;0;0;0;0;2.220446e-16;-3.236186e-23;1.110223e-16;45;0;1.480298e-16;1.480298e-16;2.220446e-16;-1.695379e-19;0;0;1.695379e-19;1.611994;2.220446e-16;-2.220446e-16;0
4.304455;-33.626861;1.621684;0;0;0;0;2.220446e-16;2.220446e-16;-1.057534e-17;0;0;0;0;2.326199e-16;2.114693e-16;1.057534e-17;45;0;1.410045e-17;1.485326e-16;2.220446e-16;-2.169413e-17;5.4346e-19;2.220446e-16;2.223759e-17;1.599992;4.440892e-16;-4.440892e-16;0
5.917441;-33.626861;1.544475;0;0;0;0;0;0;-2.17343e-23;0;0;0;0;2.17343e-23;-2.17343e-23;2.17343e-23;45;0;2.897907e-23;2.509661e-23;0;-4.34686e-23;0;0;4.34686e-23;1.530634;0;0;0
7.530427;-33.626861;1.430008;0;0;0;0;2.220446e-16;0;1.152343e-17;0;0;0;0;2.22641e-16;-5.96429e-19;1.116187e-16;45;0;1.48825e-16;1.486266e-16;2.220446e-16;2.304687e-17;0;0;-2.304687e-17;1.412997;2.220446e-16;-2.220446e-16;0
9.143413;-33.626861;1.271373;0;0;0;0;2.220446e-16;2.220446e-16;1.758324e-18;0;0;0;0;2.238029e-16;2.202863e-16;1.758324e-18;45;0;2.344433e-18;1.480437e-16;2.220446e-16;1.355995e-18;2.160654e-18;2.220446e-16;8.046584e-19;1.252152;4.440892e-16;-4.440892e-16;0
10.756399;-33.626861;1.060831;0;0;0;0;2.220446e-16;0;1.220524e-17;0;0;0;0;2.227135e-16;-6.688768e-19;1.116912e-16;45;0;1.489216e-16;1.486991e-16;2.220446e-16;2.441048e-17;0;0;-2.441048e-17;1.045923;2.220446e-16;-2.220446e-16;0
12.369385;-33.626861;0.806595;0;0;0;0;-1.110223e-16;0;2.68025e-23;0;0;0;0;6.471125e-30;-1.110223e-16;5.551115e-17;45;0;7.401487e-17;7.401487e-17;-1.110223e-16;5.360499e-23;0;0;-5.360499e-23;0.797317;-1.110223e-16;1.110223e-16;0
13.982371;-33.626861;0.521284;0;0;0;0;-1.110223e-16;0;-1.355719e-18;0;0;0;0;1.655252e-20;-1.110389e-16;5.55277e-17;45;0;7.403694e-17;7.403142e-17;-1.110223e-16;-2.711437e-18;0;0;2.711437e-18;0.509447;-1.110223e-16;1.110223e-16;0
15.595357;-33.626861;0.196451;0;0;0;0;2.220446e-16;0;1.355502e-18;0;0;0;0;2.220529e-16;-8.274536e-21;1.110306e-16;45;0;1.480408e-16;1.48038e-16;2.220446e-16;2.711003e-18;0;0;-2.711003e-18;0.180216;2.220446e-16;-2.220446e-16;0
17.208343;-33.626861;-0.178241;0;0;0;0;0;0;0;0;0;0;0;0;0;0;45;0;0;0;0;0;0;0;0;-0.197803;0;0;0
18.821329;-33.626861;-0.611297;0;0;0;0;2.220446e-16;0;1.220618e-17;0;0;0;0;2.227136e-16;-6.689793e-19;1.116913e-16;45;0;1.489217e-16;1.486992e-16;2.220446e-16;2.441236e-17;0;0;-2.441236e-17;-0.631301;2.220446e-16;-2.220446e-16;0
20.434315;-33.626861;-1.106014;0;0;0;0;-1.110223e-16;0;-1.085459e-17;0;0;0;0;1.051292e-18;-1.120736e-16;5.656244e-17;45;0;7.541659e-17;7.506861e-17;-1.110223e-16;-2.170918e-17;0;0;2.170918e-17;-1.119124;-1.110223e-16;1.110223e-16;0
22.047301;-33.626861;-1.645726;0;0;0;0;2.220446e-16;2.220446e-16;1.562427e-17;0;0;0;0;2.376689e-16;2.064203e-16;1.562427e-17;45;0;2.083237e-17;1.491251e-16;2.220446e-16;2.714101e-17;4.107539e-18;2.220446e-16;-2.303347e-17;-1.656864;4.440892e-16;-4.440892e-16;0
23.660287;-33.626861;-2.226628;0;0;0;0;-1.110223e-16;0;2.171361e-17;0;0;0;0;4.095633e-18;-1.151179e-16;5.960679e-17;45;0;7.947571e-17;7.814629e-17;-1.110223e-16;4.342722e-17;0;0;-4.342722e-17;-2.238757;-1.110223e-16;1.110223e-16;0
25.273273;-33.626861;-2.851198;0;0;0;0;0;0;0;0;0;0;0;0;0;0;45;0;0;0;0;0;0;0;0;-2.86902;0;0;0
26.886259;-33.626861;-3.535066;0;0;0;0;-1.110223e-16;0;-2.443693e-17;0;0;0;0;5.140736e-18;-1.16163e-16;6.065189e-17;45;0;8.086918e-17;7.921123e-17;-1.110223e-16;-4.887386e-17;0;0;4.887386e-17;-3.552595;-1.110223e-16;1.110223e-16;0
28.499246;-33.626861;-4.277052;0;0;0;0;0;2.220446e-16;-1.779824e-17;0;0;0;0;2.234622e-16;-1.417589e-18;1.124399e-16;45;0;1.499199e-16;1.494496e-16;0;-4.345029e-17;7.8538e-18;2.220446e-16;5.130409e-17;-4.291408;2.220446e-16;-2.220446e-16;0
30.112232;-33.626861;-5.067414;0;0;0;0;0;2.220446e-16;1.473737e-17;0;0;0;0;2.230185e-16;-9.738659e-19;1.119962e-16;45;0;1.493282e-16;1.490047e-16;0;2.172289e-17;7.751853e-18;2.220446e-16;-1.397104e-17;-5.084838;2.220446e-16;-2.220446e-16;0
31.725218;-33.626861;-5.913822;0;0;0;0;0;2.220446e-16;-7.039394e-18;0;0;0;0;2.222676e-16;-2.229433e-19;1.112452e-16;45;0;1.48327e-16;1.482527e-16;0;-2.172048e-17;7.641689e-18;2.220446e-16;2.936217e-17;-5.932083;2.220446e-16;-2.220446e-16;0
33.338204;-33.626861;-6.815134;0;0;0;0;0;2.220446e-16;-7.119928e-18;0;0;0;0;2.222727e-16;-2.280684e-19;1.112504e-16;45;0;1.483338e-16;1.482579e-16;0;-2.172658e-17;7.486727e-18;2.220446e-16;2.921331e-17;-6.849141;2.220446e-16;-2.220446e-16;0
34.95119;-33.626861;-7.815897;0;0;0;0;0;-1.110223e-16;-2.357428e-17;0;0;0;0;4.798339e-18;-1.158206e-16;6.030949e-17;45;0;8.041266e-17;7.886188e-17;0;-4.348015e-17;-3.668409e-18;-1.110223e-16;3.981174e-17;-7.833232;-1.110223e-16;1.110223e-16;0
36.564176;-33.626861;-8.866466;0;0;0;0;2.220446e-16;-1.110223e-16;-1.454904e-19;0;0;0;0;2.220447e-16;-1.110224e-16;1.665335e-16;45;0;2.220447e-16;1.95825e-16;2.220446e-16;1.000991e-17;-1.030089e-17;-1.110223e-16;-2.03108e-17;-8.866029;1.110223e-16;-1.110223e-16;0
-42.47214;-35.239847;-17.594575;0;0;0;0;0;0;0;0;0;0;0;0;0;0;45;0;0;0;0;0;0;0;0;-17.595067;0;0;0
-40.859154;-35.239847;-15.961277;0;0;0;0;0;0;-4.512741e-22;0;0;0;0;4.512741e-22;-4.512741e-22;4.512741e-22;45;0;6.016988e-22;5.210864e-22;0;-9.025482e-22;0;0;9.025482e-22;-16.000501;0;0;0
-39.246168;-35.239847;-14.446139;0;0;0;0;2.220446e-16;0;-1.633313e-17;0;0;0;0;2.232396e-16;-1.194998e-18;1.122173e-16;45;0;1.496231e-16;1.492263e-16;2.220446e-16;-3.266625e-17;0;0;3.266625e-17;-14.46625;2.220446e-16;-2.220446e-16;0
-37.633182;-35.239847;-12.989088;0;0;0;0;0;0;-2.177375e-17;0;0;0;0;2.177375e-17;-2.177375e-17;2.177375e-17;45;0;2.903167e-17;2.514217e-17;0;-4.354751e-17;0;0;4.354751e-17;-13.036308;0;0;0
-36.020196;-35.239847;-11.668119;0;0;0;0;2.220446e-16;2.220446e-16;-8.848476e-18;0;0;0;0;2.308931e-16;2.131961e-16;8.848476e-18;45;0;1.179797e-17;1.483819e-16;2.220446e-16;-1.088474e-17;-6.812213e-18;2.220446e-16;4.072525e-18;-11.699085;4.440892e-16;-4.440892e-16;0
-34.40721;-35.239847;-10.432876;0;0;0;0;0;0;0;0;0;0;0;0;0;0;45;0;0;0;0;0;0;0;0;-10.458293;0;0;0
-32.794224;-35.239847;-9.268358;0;0;0;0;0;0;-1.088411e-17;0;0;0;0;1.088411e-17;-1.088411e-17;1.088411e-17;45;0;1.451214e-17;1.256788e-17;0;-2.176821e-17;0;0;2.176821e-17;-9.306201;0;0;0
-31.181238;-35.239847;-8.211035;0;0;0;0;0;0;-2.176348e-17;0;0;0;0;2.176348e-17;-2.176348e-17;2.176348e-17;45;0;2.901798e-17;2.513031e-17;0;-4.352697e-17;0;0;4.352697e-17;-8.234931;0;0;0
-29.568251;-35.239847;-7.217126;0;0;0;0;-1.110223e-16;0;1.359732e-17;0;0;0;0;1.641059e-18;-1.126634e-16;5.715221e-17;45;0;7.620295e-17;7.566186e-17;-1.110223e-16;2.719464e-17;0;0;-2.719464e-17;-7.246041;-1.110223e-16;1.110223e-16;0
-27.955265;-35.239847;-6.302532;0;0;0;0;0;0;2.174878e-17;0;0;0;0;2.174878e-17;-2.174878e-17;2.174878e-17;45;0;2.899837e-17;2.511333e-17;0;4.349756e-17;0;0;-4.349756e-17;-6.32559;0;0;0
-26.342279;-35.239847;-5.454103;0;0;0;0;-1.110223e-16;-1.110223e-16;-8.939649e-18;0;0;0;0;-1.020827e-16;-1.19962e-16;8.939649e-18;45;0;1.191953e-17;7.473124e-17;-1.110223e-16;-2.174449e-17;3.865193e-18;-1.110223e-16;2.560968e-17;-5.466032;-2.220446e-16;2.220446e-16;0
-24.729293;-35.239847;-4.6415;0;0;0;0;0;-1.110223e-16;-8.915985e-18;0;0;0;0;7.114662e-19;-1.117338e-16;5.622262e-17;45;0;7.496349e-17;7.472746e-17;0;-2.174006e-17;3.908091e-18;-1.110223e-16;2.564815e-17;-4.659007;-1.110223e-16;1.110223e-16;0
-23.116307;-35.239847;-3.878095;0;0;0;0;0;0;0;0;0;0;0;0;0;0;45;0;0;0;0;0;0;0;0;-3.899922;0;0;0
-21.503321;-35.239847;-3.169003;0;0;0;0;-1.110223e-16;-1.110223e-16;1.558809e-17;0;0;0;0;-9.543422e-17;-1.266104e-16;1.558809e-17;45;0;2.078412e-17;7.617208e-17;-1.110223e-16;2.716151e-17;4.014666e-18;-1.110223e-16;-2.314684e-17;-3.199728;-2.220446e-16;2.220446e-16;0
-19.890335;-35.239847;-2.536146;0;0;0;0;-1.110223e-16;2.220446e-16;6.748874e-19;0;0;0;0;2.22046e-16;-1.110237e-16;1.665348e-16;45;0;2.220464e-16;1.958265e-16;-1.110223e-16;5.433462e-18;-4.083687e-18;2.220446e-16;-9.517149e-18;-2.570322;1.110223e-16;-1.110223e-16;0
-18.277349;-35.239847;-1.993587;0;0;0;0;0;0;-2.173782e-17;0;0;0;0;2.173782e-17;-2.173782e-17;2.173782e-17;45;0;2.898376e-17;2.510067e-17;0;-4.347564e-17;0;0;4.347564e-17;-1.997181;0;0;0
-16.664363;-35.239847;-1.457551;0;0;0;0;0;0;-9.509092e-18;0;0;0;0;9.509092e-18;-9.509092e-18;9.509092e-18;45;0;1.267879e-17;1.098015e-17;0;-1.901818e-17;0;0;1.901818e-17;-1.456324;0;0;0
-15.051377;-35.239847;-0.916933;0;0;0;0;0;-1.110223e-16;1.044831e-18;0;0;0;0;9.832032e-21;-1.110321e-16;5.552098e-17;45;0;7.402798e-17;7.40247e-17;0;0;2.089662e-18;-1.110223e-16;2.089662e-18;-0.968616;-1.110223e-16;1.110223e-16;0
-13.438391;-35.239847;-0.527758;0;0;0;0;2.220446e-16;2.220446e-16;-2.420021e-18;0;0;0;0;2.244646e-16;2.196246e-16;2.420021e-18;45;0;3.226695e-18;1.480561e-16;2.220446e-16;-2.715175e-18;-2.124867e-18;2.220446e-16;5.903084e-19;-0.555663;4.440892e-16;-4.440892e-16;0
-11.825405;-35.239847;-0.215476;0;0;0;0;0;0;1.086245e-17;0;0;0;0;1.086245e-17;-1.086245e-17;1.086245e-17;45;0;1.448327e-17;1.254288e-17;0;2.17249e-17;0;0;-2.17249e-17;-0.205415;0;0;0
-10.212419;-35.239847;0.132575;0;0;0;0;-1.110223e-16;2.220446e-16;2.96236e-19;0;0;0;0;2.220449e-16;-1.110226e-16;1.665337e-16;45;0;2.220449e-16;1.958252e-16;-1.110223e-16;2.71584e-18;-2.123368e-18;2.220446e-16;-4.839208e-18;0.136762;1.110223e-16;-1.110223e-16;0
-8.599433;-35.239847;0.494869;0;0;0;0;2.220446e-16;0;6.325542e-23;0;0;0;0;2.220446e-16;-1.802054e-29;1.110223e-16;45;0;1.480297e-16;1.480297e-16;2.220446e-16;1.265108e-22;0;0;-1.265108e-22;0.482147;2.220446e-16;-2.220446e-16;0
-6.986447;-35.239847;0.816325;0;0;0;0;0;0;-6.789172e-19;0;0;0;0;6.789172e-19;-6.789172e-19;6.789172e-19;45;0;9.052229e-19;7.839461e-19;0;-1.357834e-18;0;0;1.357834e-18;0.790539;0;0;0
-5.373461;-35.239847;1.054374;0;0;0;0;2.220446e-16;-1.110223e-16;1.071849e-17;0;0;0;0;2.223892e-16;-1.113669e-16;1.66878e-16;45;0;2.22504e-16;1.962157e-16;2.220446e-16;2.035741e-17;1.079581e-18;-1.110223e-16;-1.927782e-17;1.027013;1.110223e-16;-1.110223e-16;0
-3.760475;-35.239847;1.204103;0;0;0;0;2.220446e-16;-1.110223e-16;-2.149843e-17;0;0;0;0;2.234265e-16;-1.124042e-16;1.679154e-16;45;0;2.238872e-16;1.973921e-16;2.220446e-16;-4.4081e-17;1.084155e-18;-1.110223e-16;4.516516e-17;1.188615;1.110223e-16;-1.110223e-16;0
-2.147489;-35.239847;1.304713;0;0;0;0;0;-1.110223e-16;1.11227e-17;0;0;0;0;1.103356e-18;-1.121257e-16;5.66145e-17;45;0;7.548601e-17;7.512092e-17;0;2.170266e-17;5.427445e-19;-1.110223e-16;-2.115992e-17;1.300754;-1.110223e-16;1.110223e-16;0
-0.534503;-35.239847;1.39363;0;0;0;0;2.220446e-16;0;-3.393508e-19;0;0;0;0;2.220451e-16;-5.186287e-22;1.110228e-16;45;0;1.480304e-16;1.480303e-16;2.220446e-16;-6.787016e-19;0;0;6.787016e-19;1.391128;2.220446e-16;-2.220446e-16;0
1.078483;-35.239847;1.4744;0;0;0;0;0;2.220446e-16;-1.096478e-17;0;0;0;0;2.225847e-16;-5.401373e-19;1.115624e-16;45;0;1.487499e-16;1.485702e-16;0;-2.138633e-17;-5.432249e-19;2.220446e-16;2.08431e-17;1.465272;2.220446e-16;-2.220446e-16;0
2.691469;-35.239847;1.524144;0;0;0;0;0;2.220446e-16;-6.795711e-20;0;0;0;0;2.220446e-16;-2.079838e-23;1.110223e-16;45;0;1.480298e-16;1.480298e-16;0;0;-1.359142e-19;2.220446e-16;-1.359142e-19;1.502496;2.220446e-16;-2.220446e-16;0
4.304455;-35.239847;1.502616;0;0;0;0;2.220446e-16;-1.110223e-16;-1.081703e-17;0;0;0;0;2.223955e-16;-1.113732e-16;1.668844e-16;45;0;2.225125e-16;1.962229e-16;2.220446e-16;-2.136235e-17;-2.716989e-19;-1.110223e-16;2.109065e-17;1.484583;1.110223e-16;-1.110223e-16;0
5.917441;-35.239847;1.420483;0;0;0;0;0;2.220446e-16;1.138787e-17;0;0;0;0;2.226271e-16;-5.825149e-19;1.116048e-16;45;0;1.488064e-16;1.486126e-16;0;2.169047e-17;1.085276e-18;2.220446e-16;-2.060519e-17;1.411046;2.220446e-16;-2.220446e-16;0
7.530427;-35.239847;1.304878;0;0;0;0;2.220446e-16;-1.110223e-16;-5.417417e-19;0;0;0;0;2.220455e-16;-1.110232e-16;1.665343e-16;45;0;2.220458e-16;1.958259e-16;2.220446e-16;0;-1.083483e-18;-1.110223e-16;-1.083483e-18;1.292448;1.110223e-16;-1.110223e-16;0
9.143413;-35.239847;1.149645;0;0;0;0;2.220446e-16;0;-1.016781e-17;0;0;0;0;2.225092e-16;-4.646298e-19;1.114869e-16;45;0;1.486492e-16;1.484946e-16;2.220446e-16;-2.033563e-17;0;0;2.033563e-17;1.132925;2.220446e-16;-2.220446e-16;0
10.756399;-35.239847;0.942176;0;0;0;0;0;-1.110223e-16;-1.260605e-17;0;0;0;0;1.413363e-18;-1.124357e-16;5.692451e-17;45;0;7.589935e-17;7.543264e-17;0;-2.305897e-17;-2.153117e-18;-1.110223e-16;2.090586e-17;0.929242;-1.110223e-16;1.110223e-16;0
12.369385;-35.239847;0.689579;0;0;0;0;0;2.220446e-16;1.072409e-18;0;0;0;0;2.220498e-16;-5.17929e-21;1.110275e-16;45;0;1.480366e-16;1.480349e-16;0;0;2.144817e-18;2.220446e-16;2.144817e-18;0.681249;2.220446e-16;-2.220446e-16;0
13.982371;-35.239847;0.401053;0;0;0;0;0;2.220446e-16;1.192191e-17;0;0;0;0;2.226829e-16;-6.382707e-19;1.116606e-16;45;0;1.488808e-16;1.486685e-16;0;2.170848e-17;2.135345e-18;2.220446e-16;-1.957313e-17;0.390883;2.220446e-16;-2.220446e-16;0
15.595357;-35.239847;0.070109;0;0;0;0;-1.110223e-16;-1.110223e-16;-1.32669e-17;0;0;0;0;-9.77554e-17;-1.242892e-16;1.32669e-17;45;0;1.76892e-17;7.558361e-17;-1.110223e-16;-2.441035e-17;-2.123441e-18;-1.110223e-16;2.228691e-17;0.057178;-2.220446e-16;2.220446e-16;0
17.208343;-35.239847;-0.307405;0;0;0;0;2.220446e-16;0;1.220262e-17;0;0;0;0;2.227132e-16;-6.685902e-19;1.116909e-16;45;0;1.489212e-16;1.486988e-16;2.220446e-16;2.440523e-17;0;0;-2.440523e-17;-0.322848;2.220446e-16;-2.220446e-16;0
18.821329;-35.239847;-0.735322;0;0;0;0;0;0;1.085195e-17;0;0;0;0;1.085195e-17;-1.085195e-17;1.085195e-17;45;0;1.446926e-17;1.253075e-17;0;2.17039e-17;0;0;-2.17039e-17;-0.754199;0;0;0
20.434315;-35.239847;-1.223187;0;0;0;0;2.220446e-16;0;3.393443e-17;0;0;0;0;2.271149e-16;-5.070321e-18;1.160926e-16;45;0;1.547902e-16;1.53128e-16;2.220446e-16;6.786887e-17;0;0;-6.786887e-17;-1.238406;2.220446e-16;-2.220446e-16;0
22.047301;-35.239847;-1.761812;0;0;0;0;-1.110223e-16;0;1.900834e-17;0;0;0;0;3.164267e-18;-1.141866e-16;5.867542e-17;45;0;7.823389e-17;7.720075e-17;-1.110223e-16;3.801667e-17;0;0;-3.801667e-17;-1.775403;-1.110223e-16;1.110223e-16;0
23.660287;-35.239847;-2.345979;0;0;0;0;0;2.220446e-16;1.289548e-17;0;0;0;0;2.22791e-16;-7.464095e-19;1.117687e-16;45;0;1.49025e-16;1.487768e-16;0;2.172104e-17;4.069912e-18;2.220446e-16;-1.765113e-17;-2.35949;2.220446e-16;-2.220446e-16;0
25.273273;-35.239847;-2.972844;0;0;0;0;0;2.220446e-16;-1.42757e-17;0;0;0;0;2.229587e-16;-9.140507e-19;1.119364e-16;45;0;1.492485e-16;1.489447e-16;0;-3.257956e-17;4.028165e-18;2.220446e-16;3.660772e-17;-2.991774;2.220446e-16;-2.220446e-16;0
26.886259;-35.239847;-3.655584;0;0;0;0;-1.110223e-16;2.220446e-16;-7.261276e-19;0;0;0;0;2.220462e-16;-1.110239e-16;1.66535e-16;45;0;2.220467e-16;1.958267e-16;-1.110223e-16;-5.430493e-18;3.978237e-18;2.220446e-16;9.40873e-18;-3.675023;1.110223e-16;-1.110223e-16;0
28.499246;-35.239847;-4.395961;0;0;0;0;2.220446e-16;0;2.716073e-18;0;0;0;0;2.220778e-16;-3.321832e-20;1.110555e-16;45;0;1.48074e-16;1.48063e-16;2.220446e-16;5.432146e-18;0;0;-5.432146e-18;-4.414205;2.220446e-16;-2.220446e-16;0
30.112232;-35.239847;-5.194237;0;0;0;0;0;2.220446e-16;-6.99549e-18;0;0;0;0;2.222648e-16;-2.201737e-19;1.112425e-16;45;0;1.483233e-16;1.4825e-16;0;-2.173162e-17;7.740642e-18;2.220446e-16;2.947226e-17;-5.210109;2.220446e-16;-2.220446e-16;0
31.725218;-35.239847;-6.048801;0;0;0;0;2.220446e-16;2.220446e-16;6.532007e-18;0;0;0;0;2.285766e-16;2.155126e-16;6.532007e-18;45;0;8.709342e-18;1.482218e-16;2.220446e-16;5.432196e-18;7.631816e-18;2.220446e-16;2.19962e-18;-6.0619;4.440892e-16;-4.440892e-16;0
33.338204;-35.239847;-6.955543;0;0;0;0;0;0;0;0;0;0;0;0;0;0;45;0;0;0;0;0;0;0;0;-6.979313;0;0;0
34.95119;-35.239847;-7.945413;0;0;0;0;2.220446e-16;2.220446e-16;1.726335e-17;0;0;0;0;2.39308e-16;2.047813e-16;1.726335e-17;45;0;2.30178e-17;1.493659e-16;2.220446e-16;2.71763e-17;7.3504e-18;2.220446e-16;-1.98259e-17;-7.96117;4.440892e-16;-4.440892e-16;0
36.564176;-35.239847;-8.988206;0;0;0;0;0;0;-2.810084e-17;0;0;0;0;2.810084e-17;-2.810084e-17;2.810084e-17;45;0;3.746778e-17;3.244805e-17;0;-5.620167e-17;0;0;5.620167e-17;-8.989654;0;0;0
-42.47214;-36.852833;-17.684878;0;0;0;0;-1.110223e-16;2.220446e-16;1.452888e-17;0;0;0;0;2.226772e-16;-1.116549e-16;1.67166e-16;45;0;2.22888e-16;1.965423e-16;-1.110223e-16;3.771808e-17;-8.660311e-18;2.220446e-16;-4.637839e-17;-17.687828;1.110223e-16;-1.110223e-16;0
-40.859154;-36.852833;-16.060056;0;0;0;0;-2.220446e-16;2.220446e-16;-1.129394e-17;0;0;0;0;2.223316e-16;-2.223316e-16;2.223316e-16;45;0;2.964422e-16;2.567265e-16;-2.220446e-16;-1.634182e-17;-6.246066e-18;2.220446e-16;1.009575e-17;-16.103371;0;0;0
-39.246168;-36.852833;-14.567921;0;0;0;0;-2.220446e-16;0;5.444861e-18;0;0;0;0;1.334358e-19;-2.22178e-16;1.111557e-16;45;0;1.482077e-16;1.481632e-16;-2.220446e-16;1.088972e-17;0;0;-1.088972e-17;-14.576994;-2.220446e-16;2.220446e-16;0
-37.633182;-36.852833;-13.108455;0;0;0;0;-2.220446e-16;2.220446e-16;2.392273e-17;0;0;0;0;2.233296e-16;-2.233296e-16;2.233296e-16;45;0;2.977728e-16;2.578788e-16;-2.220446e-16;5.44282e-17;-6.582753e-18;2.220446e-16;-6.101096e-17;-13.151617;0;0;0
-36.020196;-36.852833;-11.782245;0;0;0;0;0;0;0;0;0;0;0;0;0;0;45;0;0;0;0;0;0;0;0;-11.812119;0;0;0
-34.40721;-36.852833;-10.543822;0;0;0;0;0;2.220446e-16;7.400226e-18;0;0;0;0;2.22291e-16;-2.463588e-19;1.112687e-16;45;0;1.483582e-16;1.482762e-16;0;2.176733e-17;-6.966876e-18;2.220446e-16;-2.87342e-17;-10.567849;2.220446e-16;-2.220446e-16;0
-32.794224;-36.852833;-9.373822;0;0;0;0;2.220446e-16;-1.110223e-16;-1.181141e-17;0;0;0;0;2.224629e-16;-1.114406e-16;1.669518e-16;45;0;2.226024e-16;1.962993e-16;2.220446e-16;-2.720268e-17;3.579851e-18;-1.110223e-16;3.078253e-17;-9.414498;1.110223e-16;-1.110223e-16;0
-31.181238;-36.852833;-8.320622;0;0;0;0;0;0;1.087787e-17;0;0;0;0;1.087787e-17;-1.087787e-17;1.087787e-17;45;0;1.450382e-17;1.256068e-17;0;2.175573e-17;0;0;-2.175573e-17;-8.344163;0;0;0
-29.568251;-36.852833;-7.331086;0;0;0;0;0;-1.110223e-16;1.871131e-18;0;0;0;0;3.152642e-20;-1.110538e-16;5.554268e-17;45;0;7.40569e-17;7.40464e-17;0;0;3.742261e-18;-1.110223e-16;3.742261e-18;-7.357445;-1.110223e-16;1.110223e-16;0
-27.955265;-36.852833;-6.415975;0;0;0;0;0;0;0;0;0;0;0;0;0;0;45;0;0;0;0;0;0;0;0;-6.43743;0;0;0
-26.342279;-36.852833;-5.565292;0;0;0;0;0;0;2.174726e-17;0;0;0;0;2.174726e-17;-2.174726e-17;2.174726e-17;45;0;2.899634e-17;2.511157e-17;0;4.349452e-17;0;0;-4.349452e-17;-5.577462;0;0;0
-24.729293;-36.852833;-4.754276;0;0;0;0;0;0;-2.174064e-17;0;0;0;0;2.174064e-17;-2.174064e-17;2.174064e-17;45;0;2.898752e-17;2.510393e-17;0;-4.348128e-17;0;0;4.348128e-17;-4.772207;0;0;0
-23.116307;-36.852833;-4.000724;0;0;0;0;0;0;1.086367e-17;0;0;0;0;1.086367e-17;-1.086367e-17;1.086367e-17;45;0;1.448489e-17;1.254428e-17;0;2.172733e-17;0;0;-2.172733e-17;-4.016217;0;0;0
-21.503321;-36.852833;-3.296514;0;0;0;0;0;0;0;0;0;0;0;0;0;0;45;0;0;0;0;0;0;0;0;-3.315899;0;0;0
-19.890335;-36.852833;-2.651883;0;0;0;0;0;2.220446e-16;-1.289963e-17;0;0;0;0;2.227915e-16;-7.468891e-19;1.117692e-16;45;0;1.490256e-16;1.487772e-16;0;-2.172358e-17;-4.075685e-18;2.220446e-16;1.76479e-17;-2.681826;2.220446e-16;-2.220446e-16;0
-18.277349;-36.852833;-2.095007;0;0;0;0;2.220446e-16;-1.110223e-16;7.023601e-19;0;0;0;0;2.220461e-16;-1.110238e-16;1.665349e-16;45;0;2.220466e-16;1.958266e-16;2.220446e-16;-2.716239e-18;4.120959e-18;-1.110223e-16;6.837197e-18;-2.105658;1.110223e-16;-1.110223e-16;0
-16.664363;-36.852833;-1.562326;0;0;0;0;0;2.220446e-16;-1.292706e-17;0;0;0;0;2.227947e-16;-7.500583e-19;1.117724e-16;45;0;1.490298e-16;1.487804e-16;0;-2.172478e-17;-4.129353e-18;2.220446e-16;1.759542e-17;-1.566306;2.220446e-16;-2.220446e-16;0
-15.051377;-36.852833;-1.027383;0;0;0;0;2.220446e-16;-1.110223e-16;-3.10829e-19;0;0;0;0;2.220449e-16;-1.110226e-16;1.665337e-16;45;0;2.22045e-16;1.958253e-16;2.220446e-16;-2.711605e-18;2.089947e-18;-1.110223e-16;4.801551e-18;-1.081281;1.110223e-16;-1.110223e-16;0
-13.438391;-36.852833;-0.636259;0;0;0;0;2.220446e-16;0;-2.306057e-17;0;0;0;0;2.244143e-16;-2.369679e-18;1.13392e-16;45;0;1.511893e-16;1.504056e-16;2.220446e-16;-4.612114e-17;0;0;4.612114e-17;-0.668585;2.220446e-16;-2.220446e-16;0
-11.825405;-36.852833;-0.324774;0;0;0;0;0;-1.110223e-16;1.191977e-17;0;0;0;0;1.265331e-18;-1.122876e-16;5.677648e-17;45;0;7.570197e-17;7.528375e-17;0;2.170997e-17;2.129575e-18;-1.110223e-16;-1.95804e-17;-0.315528;-1.110223e-16;1.110223e-16;0
-10.212419;-36.852833;0.026621;0;0;0;0;0;0;0;0;0;0;0;0;0;0;45;0;0;0;0;0;0;0;0;0.029435;0;0;0
-8.599433;-36.852833;0.393336;0;0;0;0;2.220446e-16;0;-1.222164e-17;0;0;0;0;2.227153e-16;-6.706707e-19;1.11693e-16;45;0;1.48924e-16;1.487009e-16;2.220446e-16;-2.444329e-17;0;0;2.444329e-17;0.377455;2.220446e-16;-2.220446e-16;0
-6.986447;-36.852833;0.716987;0;0;0;0;0;2.220446e-16;9.791989e-18;0;0;0;0;2.224756e-16;-4.309823e-19;1.114533e-16;45;0;1.486044e-16;1.484609e-16;0;2.17268e-17;-2.142821e-18;2.220446e-16;-2.386962e-17;0.68566;2.220446e-16;-2.220446e-16;0
-5.373461;-36.852833;0.950712;0;0;0;0;-1.110223e-16;0;1.153736e-17;0;0;0;0;1.186278e-18;-1.122086e-16;5.669743e-17;45;0;7.559657e-17;7.520426e-17;-1.110223e-16;2.307471e-17;0;0;-2.307471e-17;0.917944;-1.110223e-16;1.110223e-16;0
-3.760475;-36.852833;1.088662;0;0;0;0;-1.110223e-16;0;3.390764e-19;0;0;0;0;1.035573e-21;-1.110233e-16;5.551218e-17;45;0;7.401625e-17;7.40159e-17;-1.110223e-16;6.781527e-19;0;0;-6.781527e-19;1.074585;-1.110223e-16;1.110223e-16;0
-2.147489;-36.852833;1.185648;0;0;0;0;-1.110223e-16;2.220446e-16;-2.036108e-19;0;0;0;0;2.220447e-16;-1.110224e-16;1.665336e-16;45;0;2.220448e-16;1.958251e-16;-1.110223e-16;6.780737e-19;-1.085295e-18;2.220446e-16;-1.763369e-18;1.186775;1.110223e-16;-1.110223e-16;0
-0.534503;-36.852833;1.290094;0;0;0;0;2.220446e-16;0;-1.119414e-17;0;0;0;0;2.226075e-16;-5.62913e-19;1.115852e-16;45;0;1.487803e-16;1.48593e-16;2.220446e-16;-2.238827e-17;0;0;2.238827e-17;1.282008;2.220446e-16;-2.220446e-16;0
1.078483;-36.852833;1.379802;0;0;0;0;0;-1.110223e-16;2.716409e-19;0;0;0;0;6.646261e-22;-1.11023e-16;5.551181e-17;45;0;7.401576e-17;7.401553e-17;0;5.670289e-23;5.432251e-19;-1.110223e-16;5.431684e-19;1.359769;-1.110223e-16;1.110223e-16;0
2.691469;-36.852833;1.420125;0;0;0;0;2.220446e-16;-1.110223e-16;-1.082424e-17;0;0;0;0;2.22396e-16;-1.113737e-16;1.668849e-16;45;0;2.225131e-16;1.962234e-16;2.220446e-16;-2.171644e-17;6.795899e-20;-1.110223e-16;2.17844e-17;1.395424;1.110223e-16;-1.110223e-16;0
4.304455;-36.852833;1.391839;0;0;0;0;0;2.220446e-16;2.716676e-19;0;0;0;0;2.220449e-16;-3.3238e-22;1.110226e-16;45;0;1.480302e-16;1.480301e-16;0;0;5.433353e-19;2.220446e-16;5.433353e-19;1.372326;2.220446e-16;-2.220446e-16;0
5.917441;-36.852833;1.302524;0;0;0;0;2.220446e-16;-1.110223e-16;6.78327e-20;0;0;0;0;2.220446e-16;-1.110223e-16;1.665335e-16;45;0;2.220446e-16;1.95825e-16;2.220446e-16;6.781877e-19;-5.425223e-19;-1.110223e-16;-1.22071e-18;1.293916;1.110223e-16;-1.110223e-16;0
7.530427;-36.852833;1.180907;0;0;0;0;2.220446e-16;0;6.77908e-19;0;0;0;0;2.220467e-16;-2.069652e-21;1.110244e-16;45;0;1.480325e-16;1.480318e-16;2.220446e-16;1.355816e-18;0;0;-1.355816e-18;1.172088;2.220446e-16;-2.220446e-16;0
9.143413;-36.852833;1.027735;0;0;0;0;0;2.220446e-16;1.080793e-18;0;0;0;0;2.220499e-16;-5.260592e-21;1.110276e-16;45;0;1.480368e-16;1.48035e-16;0;0;2.161586e-18;2.220446e-16;2.161586e-18;1.012507;2.220446e-16;-2.220446e-16;0
10.756399;-36.852833;0.828769;0;0;0;0;0;0;1.085175e-17;0;0;0;0;1.085175e-17;-1.085175e-17;1.085175e-17;45;0;1.4469e-17;1.253053e-17;0;2.170351e-17;0;0;-2.170351e-17;0.81299;0;0;0
12.369385;-36.852833;0.586476;0;0;0;0;0;-1.110223e-16;-1.072751e-18;0;0;0;0;1.036447e-20;-1.110327e-16;5.552151e-17;45;0;7.402869e-17;7.402523e-17;0;0;-2.145502e-18;-1.110223e-16;-2.145502e-18;0.568607;-1.110223e-16;1.110223e-16;0
13.982371;-36.852833;0.294482;0;0;0;0;-1.110223e-16;-1.110223e-16;-2.414337e-17;0;0;0;0;-8.687893e-17;-1.351657e-16;2.414337e-17;45;0;3.219116e-17;7.909111e-17;-1.110223e-16;-4.615284e-17;-2.133905e-18;-1.110223e-16;4.401894e-17;0.27742;-2.220446e-16;2.220446e-16;0
15.595357;-36.852833;-0.048078;0;0;0;0;-1.110223e-16;0;-1.356663e-18;0;0;0;0;1.657558e-20;-1.110389e-16;5.552773e-17;45;0;7.403697e-17;7.403145e-17;-1.110223e-16;-2.713325e-18;0;0;2.713325e-18;-0.062354;-1.110223e-16;1.110223e-16;0
17.208343;-36.852833;-0.435053;0;0;0;0;2.220446e-16;0;1.355995e-18;0;0;0;0;2.220529e-16;-8.280558e-21;1.110306e-16;45;0;1.480408e-16;1.48038e-16;2.220446e-16;2.711989e-18;0;0;-2.711989e-18;-0.44676;2.220446e-16;-2.220446e-16;0
18.821329;-36.852833;-0.856797;0;0;0;0;0;-1.110223e-16;8.756877e-18;0;0;0;0;6.864538e-19;-1.117088e-16;5.619761e-17;45;0;7.493014e-17;7.470238e-17;0;2.170176e-17;-4.188e-18;-1.110223e-16;-2.588975e-17;-0.876979;-1.110223e-16;1.110223e-16;0
20.434315;-36.852833;-1.334475;0;0;0;0;0;2.220446e-16;-1.014133e-17;0;0;0;0;2.225068e-16;-4.622176e-19;1.114845e-16;45;0;1.48646e-16;1.484922e-16;0;-2.443093e-17;4.148269e-18;2.220446e-16;2.85792e-17;-1.356388;2.220446e-16;-2.220446e-16;0
22.047301;-36.852833;-1.871022;0;0;0;0;0;-1.110223e-16;8.809726e-18;0;0;0;0;6.94713e-19;-1.11717e-16;5.620586e-17;45;0;7.494115e-17;7.471066e-17;0;2.172432e-17;-4.104871e-18;-1.110223e-16;-2.582919e-17;-1.891435;-1.110223e-16;1.110223e-16;0
23.660287;-36.852833;-2.463785;0;0;0;0;-1.110223e-16;2.220446e-16;2.032632e-18;0;0;0;0;2.22057e-16;-1.110347e-16;1.665459e-16;45;0;2.220611e-16;1.95839e-16;-1.110223e-16;2.64598e-22;4.064999e-18;2.220446e-16;4.064735e-18;-2.478056;1.110223e-16;-1.110223e-16;0
25.273273;-36.852833;-3.096419;0;0;0;0;0;-1.110223e-16;-2.012756e-18;0;0;0;0;3.647787e-20;-1.110588e-16;5.554763e-17;45;0;7.406351e-17;7.405135e-17;0;0;-4.025513e-18;-1.110223e-16;-4.025513e-18;-3.114157;-1.110223e-16;1.110223e-16;0
26.886259;-36.852833;-3.778466;0;0;0;0;-1.110223e-16;0;8.144658e-18;0;0;0;0;5.943152e-19;-1.116166e-16;5.610546e-17;45;0;7.480729e-17;7.460997e-17;-1.110223e-16;1.628932e-17;0;0;-1.628932e-17;-3.798388;-1.110223e-16;1.110223e-16;0
28.499246;-36.852833;-4.512617;0;0;0;0;-1.110223e-16;0;1.901064e-17;0;0;0;0;3.165015e-18;-1.141873e-16;5.867617e-17;45;0;7.823489e-17;7.720151e-17;-1.110223e-16;3.802129e-17;0;0;-3.802129e-17;-4.536961;-1.110223e-16;1.110223e-16;0
30.112232;-36.852833;-5.311449;0;0;0;0;0;0;0;0;0;0;0;0;0;0;45;0;0;0;0;0;0;0;0;-5.332583;0;0;0
31.725218;-36.852833;-6.169633;0;0;0;0;-1.110223e-16;-1.110223e-16;-4.624028e-18;0;0;0;0;-1.063983e-16;-1.156463e-16;4.624028e-18;45;0;6.16537e-18;7.420721e-17;-1.110223e-16;-5.435027e-18;-3.813029e-18;-1.110223e-16;1.621997e-18;-6.186365;-2.220446e-16;2.220446e-16;0
33.338204;-36.852833;-7.081071;0;0;0;0;0;2.220446e-16;-7.125777e-18;0;0;0;0;2.22273e-16;-2.284429e-19;1.112507e-16;45;0;1.483343e-16;1.482582e-16;0;-2.174381e-17;7.492255e-18;2.220446e-16;2.923607e-17;-7.104304;2.220446e-16;-2.220446e-16;0
34.95119;-36.852833;-8.068502;0;0;0;0;0;0;0;0;0;0;0;0;0;0;45;0;0;0;0;0;0;0;0;-8.087062;0;0;0
36.564176;-36.852833;-9.114292;0;0;0;0;0;0;-3.512381e-18;0;0;0;0;3.512381e-18;-3.512381e-18;3.512381e-18;45;0;4.683175e-18;4.055748e-18;0;-7.024763e-18;0;0;7.024763e-18;-9.116342;0;0;0
-42.47214;-38.465819;-17.78403;0;0;0;0;0;2.220446e-16;4.617091e-17;0;0;0;0;2.312625e-16;-9.217892e-18;1.202402e-16;45;0;1.603203e-16;1.573377e-16;0;4.902702e-17;4.33148e-17;2.220446e-16;-5.712221e-18;-17.784874;2.220446e-16;-2.220446e-16;0
-40.859154;-38.465819;-16.157561;0;0;0;0;0;0;1.23936e-17;0;0;0;0;1.23936e-17;-1.23936e-17;1.23936e-17;45;0;1.65248e-17;1.431089e-17;0;2.478719e-17;0;0;-2.478719e-17;-16.20079;0;0;0
-39.246168;-38.465819;-14.673903;0;0;0;0;0;-1.110223e-16;1.249988e-17;0;0;0;0;1.389946e-18;-1.124122e-16;5.69011e-17;45;0;7.586813e-17;7.540909e-17;0;2.178282e-17;3.21694e-18;-1.110223e-16;-1.856588e-17;-14.685888;-1.110223e-16;1.110223e-16;0
-37.633182;-38.465819;-13.228551;0;0;0;0;0;2.220446e-16;-5.738611e-19;0;0;0;0;2.220461e-16;-1.4831e-21;1.110238e-16;45;0;1.480317e-16;1.480312e-16;0;5.443769e-18;-6.591491e-18;2.220446e-16;-1.203526e-17;-13.265164;2.220446e-16;-2.220446e-16;0
-36.020196;-38.465819;-11.900127;0;0;0;0;2.220446e-16;0;-5.441996e-18;0;0;0;0;2.221779e-16;-1.332955e-19;1.111556e-16;45;0;1.482075e-16;1.481631e-16;2.220446e-16;-1.088399e-17;0;0;1.088399e-17;-11.926242;2.220446e-16;-2.220446e-16;0
-34.40721;-38.465819;-10.655787;0;0;0;0;2.220446e-16;-1.110223e-16;2.07876e-17;0;0;0;0;2.23337e-16;-1.123147e-16;1.678259e-16;45;0;2.237678e-16;1.972906e-16;2.220446e-16;3.809443e-17;3.480764e-18;-1.110223e-16;-3.461367e-17;-10.679199;1.110223e-16;-1.110223e-16;0
-32.794224;-38.465819;-9.485484;0;0;0;0;-1.110223e-16;-1.110223e-16;4.510361e-18;0;0;0;0;-1.065119e-16;-1.155327e-16;4.510361e-18;45;0;6.013815e-18;7.419788e-17;-1.110223e-16;5.438763e-18;3.581959e-18;-1.110223e-16;-1.856804e-18;-9.525462;-2.220446e-16;2.220446e-16;0
-31.181238;-38.465819;-8.43868;0;0;0;0;2.220446e-16;-1.110223e-16;1.271545e-17;0;0;0;0;2.225293e-16;-1.11507e-16;1.670182e-16;45;0;2.226909e-16;1.963746e-16;2.220446e-16;2.175509e-17;3.675809e-18;-1.110223e-16;-1.807928e-17;-8.456689;1.110223e-16;-1.110223e-16;0
-29.568251;-38.465819;-7.451259;0;0;0;0;-1.110223e-16;2.220446e-16;-1.021817e-18;0;0;0;0;2.220477e-16;-1.110254e-16;1.665366e-16;45;0;2.220488e-16;1.958285e-16;-1.110223e-16;5.437361e-18;-7.480994e-18;2.220446e-16;-1.291836e-17;-7.470171;1.110223e-16;-1.110223e-16;0
-27.955265;-38.465819;-6.528688;0;0;0;0;-1.110223e-16;0;2.719e-18;0;0;0;0;6.654996e-20;-1.110888e-16;5.55777e-17;45;0;7.41036e-17;7.408143e-17;-1.110223e-16;5.437999e-18;0;0;-5.437999e-18;-6.547855;-1.110223e-16;1.110223e-16;0
-26.342279;-38.465819;-5.670809;0;0;0;0;-1.110223e-16;-1.110223e-16;1.932085e-18;0;0;0;0;-1.090902e-16;-1.129544e-16;1.932085e-18;45;0;2.576113e-18;7.404849e-17;-1.110223e-16;0;3.86417e-18;-1.110223e-16;3.86417e-18;-5.686188;-2.220446e-16;2.220446e-16;0
-24.729293;-38.465819;-4.863984;0;0;0;0;0;0;0;0;0;0;0;0;0;0;45;0;0;0;0;0;0;0;0;-4.88334;0;0;0
-23.116307;-38.465819;-4.12108;0;0;0;0;0;0;0;0;0;0;0;0;0;0;45;0;0;0;0;0;0;0;0;-4.132098;0;0;0
-21.503321;-38.465819;-3.420775;0;0;0;0;0;2.220446e-16;-2.005025e-18;0;0;0;0;2.220627e-16;-1.810355e-20;1.110404e-16;45;0;1.480539e-16;1.480478e-16;0;0;-4.010049e-18;2.220446e-16;-4.010049e-18;-3.433058;2.220446e-16;-2.220446e-16;0
-19.890335;-38.465819;-2.768871;0;0;0;0;0;2.220446e-16;8.830043e-18;0;0;0;0;2.223952e-16;-3.505906e-19;1.113729e-16;45;0;1.484972e-16;1.483805e-16;0;2.172967e-17;-4.069581e-18;2.220446e-16;-2.579925e-17;-2.794986;2.220446e-16;-2.220446e-16;0
-18.277349;-38.465819;-2.204651;0;0;0;0;0;-1.110223e-16;2.06065e-18;0;0;0;0;3.82339e-20;-1.110605e-16;5.554939e-17;45;0;7.406584e-17;7.405311e-17;0;0;4.1213e-18;-1.110223e-16;4.1213e-18;-2.216645;-1.110223e-16;1.110223e-16;0
-16.664363;-38.465819;-1.680895;0;0;0;0;0;0;-2.035719e-17;0;0;0;0;2.035719e-17;-2.035719e-17;2.035719e-17;45;0;2.714292e-17;2.350646e-17;0;-4.071439e-17;0;0;4.071439e-17;-1.680534;0;0;0
-15.051377;-38.465819;-1.15842;0;0;0;0;2.220446e-16;2.220446e-16;-3.446103e-18;0;0;0;0;2.254907e-16;2.185985e-16;3.446103e-18;45;0;4.594803e-18;1.480832e-16;2.220446e-16;-2.710476e-18;-4.18173e-18;2.220446e-16;-1.471254e-18;-1.199515;4.440892e-16;-4.440892e-16;0
-13.438391;-38.465819;-0.764002;0;0;0;0;0;2.220446e-16;8.724975e-18;0;0;0;0;2.223869e-16;-3.423097e-19;1.113646e-16;45;0;1.484861e-16;1.483722e-16;0;2.169625e-17;-4.246295e-18;2.220446e-16;-2.594254e-17;-0.787085;2.220446e-16;-2.220446e-16;0
-11.825405;-38.465819;-0.446257;0;0;0;0;2.220446e-16;-1.110223e-16;-1.114467e-17;0;0;0;0;2.224171e-16;-1.113948e-16;1.669059e-16;45;0;2.225413e-16;1.962473e-16;2.220446e-16;-2.441756e-17;2.128216e-18;-1.110223e-16;2.654578e-17;-0.429827;1.110223e-16;-1.110223e-16;0
-10.212419;-38.465819;-0.084423;0;0;0;0;-1.110223e-16;0;-9.500058e-18;0;0;0;0;8.070432e-19;-1.118293e-16;5.631819e-17;45;0;7.509093e-17;7.482336e-17;-1.110223e-16;-1.900012e-17;0;0;1.900012e-17;-0.080964;-1.110223e-16;1.110223e-16;0
-8.599433;-38.465819;0.288445;0;0;0;0;0;0;9.607505e-23;0;0;0;0;9.607505e-23;-9.607505e-23;9.607505e-23;45;0;1.281001e-22;1.109379e-22;0;1.921501e-22;0;0;-1.921501e-22;0.270166;0;0;0
-6.986447;-38.465819;0.612359;0;0;0;0;0;2.220446e-16;-1.071569e-18;0;0;0;0;2.220498e-16;-5.17118e-21;1.110275e-16;45;0;1.480366e-16;1.480349e-16;0;0;-2.143137e-18;2.220446e-16;-2.143137e-18;0.578804;2.220446e-16;-2.220446e-16;0
-5.373461;-38.465819;0.843536;0;0;0;0;2.220446e-16;0;4.084034e-22;0;0;0;0;2.220446e-16;-7.511681e-28;1.110223e-16;45;0;1.480297e-16;1.480297e-16;2.220446e-16;8.168067e-22;0;0;-8.168067e-22;0.808054;2.220446e-16;-2.220446e-16;0
-3.760475;-38.465819;0.97444;0;0;0;0;0;0;1.119054e-17;0;0;0;0;1.119054e-17;-1.119054e-17;1.119054e-17;45;0;1.492072e-17;1.292173e-17;0;2.238108e-17;0;0;-2.238108e-17;0.961143;0;0;0
-2.147489;-38.465819;1.065078;0;0;0;0;-1.110223e-16;2.220446e-16;1.064762e-17;0;0;0;0;2.223846e-16;-1.113623e-16;1.668735e-16;45;0;2.22498e-16;1.962105e-16;-1.110223e-16;2.238048e-17;-1.08523e-18;2.220446e-16;-2.346571e-17;1.073156;1.110223e-16;-1.110223e-16;0
-0.534503;-38.465819;1.17461;0;0;0;0;2.220446e-16;0;-1.119086e-17;0;0;0;0;2.226072e-16;-5.625844e-19;1.115849e-16;45;0;1.487799e-16;1.485927e-16;2.220446e-16;-2.238172e-17;0;0;2.238172e-17;1.170719;2.220446e-16;-2.220446e-16;0
1.078483;-38.465819;1.270095;0;0;0;0;0;0;-1.085104e-17;0;0;0;0;1.085104e-17;-1.085104e-17;1.085104e-17;45;0;1.446806e-17;1.252971e-17;0;-2.170209e-17;0;0;2.170209e-17;1.250258;0;0;0
2.691469;-38.465819;1.311024;0;0;0;0;0;2.220446e-16;1.083836e-17;0;0;0;0;2.225724e-16;-5.277831e-19;1.115501e-16;45;0;1.487335e-16;1.485578e-16;0;2.174467e-17;-6.795914e-20;2.220446e-16;-2.181263e-17;1.285267;2.220446e-16;-2.220446e-16;0
4.304455;-38.465819;1.284773;0;0;0;0;2.220446e-16;0;-1.051321e-17;0;0;0;0;2.225413e-16;-4.96661e-19;1.11519e-16;45;0;1.486919e-16;1.485267e-16;2.220446e-16;-2.102642e-17;0;0;2.102642e-17;1.259976;2.220446e-16;-2.220446e-16;0
5.917441;-38.465819;1.193406;0;0;0;0;0;0;-2.170284e-17;0;0;0;0;2.170284e-17;-2.170284e-17;2.170284e-17;45;0;2.893711e-17;2.506028e-17;0;-4.340567e-17;0;0;4.340567e-17;1.178262;0;0;0
7.530427;-38.465819;1.063819;0;0;0;0;2.220446e-16;-1.110223e-16;-2.223579e-17;0;0;0;0;2.235225e-16;-1.125002e-16;1.680114e-16;45;0;2.240152e-16;1.97501e-16;2.220446e-16;-4.338854e-17;-1.083046e-18;-1.110223e-16;4.23055e-17;1.052414;1.110223e-16;-1.110223e-16;0
9.143413;-38.465819;0.905395;0;0;0;0;2.220446e-16;-1.110223e-16;1.372803e-19;0;0;0;0;2.220447e-16;-1.110224e-16;1.665335e-16;45;0;2.220447e-16;1.95825e-16;2.220446e-16;1.355321e-18;-1.08076e-18;-1.110223e-16;-2.436081e-18;0.890724;1.110223e-16;-1.110223e-16;0
10.756399;-38.465819;0.709238;0;0;0;0;0;0;1.084425e-17;0;0;0;0;1.084425e-17;-1.084425e-17;1.084425e-17;45;0;1.4459e-17;1.252186e-17;0;2.168849e-17;0;0;-2.168849e-17;0.693788;0;0;0
12.369385;-38.465819;0.477893;0;0;0;0;0;0;-2.237743e-17;0;0;0;0;2.237743e-17;-2.237743e-17;2.237743e-17;45;0;2.983658e-17;2.583923e-17;0;-4.475486e-17;0;0;4.475486e-17;0.45361;0;0;0
13.982371;-38.465819;0.1878;0;0;0;0;2.220446e-16;-1.110223e-16;1.114419e-17;0;0;0;0;2.224171e-16;-1.113948e-16;1.669059e-16;45;0;2.225412e-16;1.962473e-16;2.220446e-16;2.442178e-17;-2.133406e-18;-1.110223e-16;-2.655518e-17;0.164116;1.110223e-16;-1.110223e-16;0
15.595357;-38.465819;-0.16253;0;0;0;0;0;0;-2.170926e-17;0;0;0;0;2.170926e-17;-2.170926e-17;2.170926e-17;45;0;2.894569e-17;2.50677e-17;0;-4.341853e-17;0;0;4.341853e-17;-0.179253;0;0;0
17.208343;-38.465819;-0.561559;0;0;0;0;-1.110223e-16;-1.110223e-16;8.441115e-18;0;0;0;0;-1.025812e-16;-1.194634e-16;8.441115e-18;45;0;1.125482e-17;7.46539e-17;-1.110223e-16;1.898936e-17;-2.107129e-18;-1.110223e-16;-2.109649e-17;-0.568329;-2.220446e-16;2.220446e-16;0
18.821329;-38.465819;-0.9842;0;0;0;0;2.220446e-16;-1.110223e-16;-1.158797e-17;0;0;0;0;2.224473e-16;-1.11425e-16;1.669361e-16;45;0;2.225815e-16;1.962816e-16;2.220446e-16;-1.898628e-17;-4.189669e-18;-1.110223e-16;1.479661e-17;-0.999751;1.110223e-16;-1.110223e-16;0
20.434315;-38.465819;-1.454811;0;0;0;0;0;0;-2.034941e-17;0;0;0;0;2.034941e-17;-2.034941e-17;2.034941e-17;45;0;2.713254e-17;2.349747e-17;0;-4.069881e-17;0;0;4.069881e-17;-1.475937;0;0;0
22.047301;-38.465819;-1.985867;0;0;0;0;0;2.220446e-16;1.427033e-17;0;0;0;0;2.22958e-16;-9.133663e-19;1.119357e-16;45;0;1.492476e-16;1.48944e-16;0;2.44343e-17;4.106359e-18;2.220446e-16;-2.032794e-17;-2.007495;2.220446e-16;-2.220446e-16;0
23.660287;-38.465819;-2.581974;0;0;0;0;0;2.220446e-16;2.030882e-18;0;0;0;0;2.220632e-16;-1.857347e-20;1.110409e-16;45;0;1.480545e-16;1.480483e-16;0;0;4.061765e-18;2.220446e-16;4.061765e-18;-2.594392;2.220446e-16;-2.220446e-16;0
25.273273;-38.465819;-3.222805;0;0;0;0;0;0;2.172428e-17;0;0;0;0;2.172428e-17;-2.172428e-17;2.172428e-17;45;0;2.896571e-17;2.508504e-17;0;4.344857e-17;0;0;-4.344857e-17;-3.233913;0;0;0
26.886259;-38.465819;-3.909559;0;0;0;0;0;0;-1.085997e-17;0;0;0;0;1.085997e-17;-1.085997e-17;1.085997e-17;45;0;1.447996e-17;1.254001e-17;0;-2.171994e-17;0;0;2.171994e-17;-3.921439;0;0;0
28.499246;-38.465819;-4.641236;0;0;0;0;2.220446e-16;-1.110223e-16;1.975624e-17;0;0;0;0;2.232124e-16;-1.121901e-16;1.677012e-16;45;0;2.236016e-16;1.971492e-16;2.220446e-16;4.344121e-17;-3.928719e-18;-1.110223e-16;-4.736993e-17;-4.660896;1.110223e-16;-1.110223e-16;0
30.112232;-38.465819;-5.433545;0;0;0;0;0;0;1.086407e-17;0;0;0;0;1.086407e-17;-1.086407e-17;1.086407e-17;45;0;1.448543e-17;1.254475e-17;0;2.172814e-17;0;0;-2.172814e-17;-5.455297;0;0;0
31.725218;-38.465819;-6.285764;0;0;0;0;0;0;0;0;0;0;0;0;0;0;45;0;0;0;0;0;0;0;0;-6.308096;0;0;0
33.338204;-38.465819;-7.19724;0;0;0;0;0;0;2.17444e-17;0;0;0;0;2.17444e-17;-2.17444e-17;2.17444e-17;45;0;2.899254e-17;2.510828e-17;0;4.348881e-17;0;0;-4.348881e-17;-7.22522;0;0;0
34.95119;-38.465819;-8.186769;0;0;0;0;-1.110223e-16;2.220446e-16;1.182484e-17;0;0;0;0;2.224639e-16;-1.114416e-16;1.669527e-16;45;0;2.226036e-16;1.963004e-16;-1.110223e-16;1.631078e-17;7.338897e-18;2.220446e-16;-8.971881e-18;-8.211408;1.110223e-16;-1.110223e-16;0
36.564176;-38.465819;-9.246528;0;0;0;0;0;2.220446e-16;-1.242515e-17;0;0;0;0;2.227377e-16;-6.931215e-19;1.117154e-16;45;0;1.489539e-16;1.487234e-16;0;-3.512209e-17;1.027179e-17;2.220446e-16;4.539388e-17;-9.24737;2.220446e-16;-2.220446e-16;0
-40.859154;-40.078805;-16.26258;0;0;0;0;0;0;0;0;0;0;0;0;0;0;45;0;0;0;0;0;0;0;0;-16.296819;0;0;0
-39.246168;-40.078805;-14.770792;0;0;0;0;-2.220446e-16;0;1.633624e-17;0;0;0;0;1.195452e-18;-2.232401e-16;1.122178e-16;45;0;1.496237e-16;1.492268e-16;-2.220446e-16;3.267248e-17;0;0;-3.267248e-17;-14.793694;-2.220446e-16;2.220446e-16;0
-37.633182;-40.078805;-13.343168;0;0;0;0;0;0;2.17786e-17;0;0;0;0;2.17786e-17;-2.17786e-17;2.17786e-17;45;0;2.903813e-17;2.514776e-17;0;4.35572e-17;0;0;-4.35572e-17;-13.373944;0;0;0
-36.020196;-40.078805;-12.011321;0;0;0;0;0;0;2.177516e-17;0;0;0;0;2.177516e-17;-2.177516e-17;2.177516e-17;45;0;2.903354e-17;2.514379e-17;0;4.355032e-17;0;0;-4.355032e-17;-12.036493;0;0;0
-34.40721;-40.078805;-10.762707;0;0;0;0;0;2.220446e-16;-3.481804e-18;0;0;0;0;2.220992e-16;-5.458354e-20;1.110769e-16;45;0;1.481025e-16;1.480843e-16;0;0;-6.963608e-18;2.220446e-16;-6.963608e-18;-10.788985;2.220446e-16;-2.220446e-16;0
-32.794224;-40.078805;-9.597477;0;0;0;0;0;0;0;0;0;0;0;0;0;0;45;0;0;0;0;0;0;0;0;-9.635621;0;0;0
-31.181238;-40.078805;-8.550762;0;0;0;0;2.220446e-16;0;-2.719994e-18;0;0;0;0;2.220779e-16;-3.33143e-20;1.110556e-16;45;0;1.480742e-16;1.480631e-16;2.220446e-16;-5.439989e-18;0;0;5.439989e-18;-8.56716;2.220446e-16;-2.220446e-16;0
-29.568251;-40.078805;-7.561013;0;0;0;0;0;2.220446e-16;1.989235e-17;0;0;0;0;2.238126e-16;-1.768022e-18;1.127903e-16;45;0;1.503871e-16;1.498012e-16;0;4.352245e-17;-3.737745e-18;2.220446e-16;-4.72602e-17;-7.578439;2.220446e-16;-2.220446e-16;0
-27.955265;-40.078805;-6.633462;0;0;0;0;0;0;0;0;0;0;0;0;0;0;45;0;0;0;0;0;0;0;0;-6.654018;0;0;0
-26.342279;-40.078805;-5.773106;0;0;0;0;0;0;0;0;0;0;0;0;0;0;45;0;0;0;0;0;0;0;0;-5.792273;0;0;0
-24.729293;-40.078805;-4.970096;0;0;0;0;0;0;0;0;0;0;0;0;0;0;45;0;0;0;0;0;0;0;0;-4.991966;0;0;0
-23.116307;-40.078805;-4.230691;0;0;0;0;0;-1.110223e-16;2.372663e-17;0;0;0;0;4.858054e-18;-1.158804e-16;6.03692e-17;45;0;8.049228e-17;7.892278e-17;0;4.348322e-17;3.97004e-18;-1.110223e-16;-3.951318e-17;-4.24404;-1.110223e-16;1.110223e-16;0
-21.503321;-40.078805;-3.530743;0;0;0;0;0;-1.110223e-16;1.287411e-17;0;0;0;0;1.473327e-18;-1.124956e-16;5.698448e-17;45;0;7.597931e-17;7.549299e-17;0;2.173883e-17;4.009394e-18;-1.110223e-16;-1.772944e-17;-3.545764;-1.110223e-16;1.110223e-16;0
-19.890335;-40.078805;-2.876237;0;0;0;0;0;0;0;0;0;0;0;0;0;0;45;0;0;0;0;0;0;0;0;-2.905429;0;0;0
-18.277349;-40.078805;-2.310189;0;0;0;0;-1.110223e-16;0;2.716473e-18;0;0;0;0;6.642638e-20;-1.110887e-16;5.557758e-17;45;0;7.410344e-17;7.40813e-17;-1.110223e-16;5.432945e-18;0;0;-5.432945e-18;-2.327308;-1.110223e-16;1.110223e-16;0
-16.664363;-40.078805;-1.799745;0;0;0;0;0;2.220446e-16;8.790208e-18;0;0;0;0;2.22392e-16;-3.474395e-19;1.113697e-16;45;0;1.48493e-16;1.483773e-16;0;2.172384e-17;-4.143423e-18;2.220446e-16;-2.586726e-17;-1.795023;2.220446e-16;-2.220446e-16;0
-15.051377;-40.078805;-1.286193;0;0;0;0;2.220446e-16;2.220446e-16;-2.5165e-17;0;0;0;0;2.472096e-16;1.968796e-16;2.5165e-17;45;0;3.355334e-17;1.508548e-16;2.220446e-16;-4.614869e-17;-4.181317e-18;2.220446e-16;4.196738e-17;-1.31643;4.440892e-16;-4.440892e-16;0
-13.438391;-40.078805;-0.880414;0;0;0;0;0;0;0;0;0;0;0;0;0;0;45;0;0;0;0;0;0;0;0;-0.903076;0;0;0
-11.825405;-40.078805;-0.560063;0;0;0;0;0;-1.110223e-16;1.064125e-18;0;0;0;0;1.019848e-20;-1.110325e-16;5.552135e-17;45;0;7.402847e-17;7.402507e-17;0;0;2.12825e-18;-1.110223e-16;2.12825e-18;-0.543003;-1.110223e-16;1.110223e-16;0
-10.212419;-40.078805;-0.19887;0;0;0;0;0;0;1.085649e-17;0;0;0;0;1.085649e-17;-1.085649e-17;1.085649e-17;45;0;1.447532e-17;1.253599e-17;0;2.171297e-17;0;0;-2.171297e-17;-0.193533;0;0;0
-8.599433;-40.078805;0.177308;0;0;0;0;0;0;1.085497e-17;0;0;0;0;1.085497e-17;-1.085497e-17;1.085497e-17;45;0;1.44733e-17;1.253424e-17;0;2.170994e-17;0;0;-2.170994e-17;0.157902;0;0;0
-6.986447;-40.078805;0.499729;0;0;0;0;2.220446e-16;0;-1.085267e-17;0;0;0;0;2.225738e-16;-5.291746e-19;1.115515e-16;45;0;1.487353e-16;1.485592e-16;2.220446e-16;-2.170534e-17;0;0;2.170534e-17;0.466692;2.220446e-16;-2.220446e-16;0
-5.373461;-40.078805;0.72682;0;0;0;0;0;-1.110223e-16;5.401098e-19;0;0;0;0;2.627505e-21;-1.110249e-16;5.551378e-17;45;0;7.401837e-17;7.40175e-17;0;-3.757921e-22;1.080595e-18;-1.110223e-16;1.080971e-18;0.694834;-1.110223e-16;1.110223e-16;0
-3.760475;-40.078805;0.859236;0;0;0;0;0;2.220446e-16;1.031019e-17;0;0;0;0;2.225223e-16;-4.777049e-19;1.115e-16;45;0;1.486667e-16;1.485077e-16;0;2.170493e-17;-1.084552e-18;2.220446e-16;-2.278948e-17;0.848416;2.220446e-16;-2.220446e-16;0
-2.147489;-40.078805;0.956156;0;0;0;0;-1.110223e-16;2.220446e-16;2.151392e-17;0;0;0;0;2.234285e-16;-1.124062e-16;1.679174e-16;45;0;2.238898e-16;1.973944e-16;-1.110223e-16;4.411291e-17;-1.085078e-18;2.220446e-16;-4.519799e-17;0.962823;1.110223e-16;-1.110223e-16;0
-0.534503;-40.078805;1.064478;0;0;0;0;2.220446e-16;2.220446e-16;9.977498e-18;0;0;0;0;2.320221e-16;2.120671e-16;9.977498e-18;45;0;1.330333e-17;1.484774e-16;2.220446e-16;2.104036e-17;-1.085362e-18;2.220446e-16;-2.212572e-17;1.061378;4.440892e-16;-4.440892e-16;0
1.078483;-40.078805;1.150506;0;0;0;0;0;0;1.695872e-19;0;0;0;0;1.695872e-19;-1.695872e-19;1.695872e-19;45;0;2.261163e-19;1.958224e-19;0;3.391744e-19;0;0;-3.391744e-19;1.139797;0;0;0
2.691469;-40.078805;1.191585;0;0;0;0;-1.110223e-16;0;-3.535021e-24;0;0;0;0;1.109336e-31;-1.110223e-16;5.551115e-17;45;0;7.401487e-17;7.401487e-17;-1.110223e-16;-7.070043e-24;0;0;7.070043e-24;1.172616;-1.110223e-16;1.110223e-16;0
4.304455;-40.078805;1.167653;0;0;0;0;-1.110223e-16;0;-2.203725e-17;0;0;0;0;4.21429e-18;-1.152366e-16;5.972544e-17;45;0;7.963392e-17;7.826699e-17;-1.110223e-16;-4.40745e-17;0;0;4.40745e-17;1.146431;-1.110223e-16;1.110223e-16;0
5.917441;-40.078805;1.076853;0;0;0;0;2.220446e-16;0;-1.050919e-17;0;0;0;0;2.225409e-16;-4.962821e-19;1.115186e-16;45;0;1.486914e-16;1.485263e-16;2.220446e-16;-2.101838e-17;0;0;2.101838e-17;1.062776;2.220446e-16;-2.220446e-16;0
7.530427;-40.078805;0.942582;0;0;0;0;-1.110223e-16;2.220446e-16;-1.36514e-19;0;0;0;0;2.220447e-16;-1.110224e-16;1.665335e-16;45;0;2.220447e-16;1.95825e-16;-1.110223e-16;-1.355817e-18;1.082789e-18;2.220446e-16;2.438605e-18;0.933954;1.110223e-16;-1.110223e-16;0
9.143413;-40.078805;0.778504;0;0;0;0;0;0;2.168916e-17;0;0;0;0;2.168916e-17;-2.168916e-17;2.168916e-17;45;0;2.891889e-17;2.504449e-17;0;4.337833e-17;0;0;-4.337833e-17;0.769364;0;0;0
10.756399;-40.078805;0.579567;0;0;0;0;0;2.220446e-16;-9.764597e-18;0;0;0;0;2.224732e-16;-4.285791e-19;1.114509e-16;45;0;1.486012e-16;1.484585e-16;0;-2.168468e-17;2.155481e-18;2.220446e-16;2.384016e-17;0.571472;2.220446e-16;-2.220446e-16;0
12.369385;-40.078805;0.350511;0;0;0;0;0;-1.110223e-16;-1.073625e-18;0;0;0;0;1.038137e-20;-1.110327e-16;5.552153e-17;45;0;7.402871e-17;7.402525e-17;0;0;-2.147251e-18;-1.110223e-16;-2.147251e-18;0.332444;-1.110223e-16;1.110223e-16;0
13.982371;-40.078805;0.067756;0;0;0;0;2.220446e-16;0;1.355716e-18;0;0;0;0;2.220529e-16;-8.27715e-21;1.110306e-16;45;0;1.480408e-16;1.48038e-16;2.220446e-16;2.711431e-18;0;0;-2.711431e-18;0.045003;2.220446e-16;-2.220446e-16;0
15.595357;-40.078805;-0.277262;0;0;0;0;0;0;3.255506e-17;0;0;0;0;3.255506e-17;-3.255506e-17;3.255506e-17;45;0;4.340675e-17;3.759135e-17;0;6.511013e-17;0;0;-6.511013e-17;-0.297747;0;0;0
17.208343;-40.078805;-0.678833;0;0;0;0;-1.110223e-16;-1.110223e-16;8.444028e-18;0;0;0;0;-1.025783e-16;-1.194663e-16;8.444028e-18;45;0;1.12587e-17;7.465433e-17;-1.110223e-16;1.899368e-17;-2.105623e-18;-1.110223e-16;-2.10993e-17;-0.689165;-2.220446e-16;2.220446e-16;0
18.821329;-40.078805;-1.110644;0;0;0;0;2.220446e-16;0;1.220639e-17;0;0;0;0;2.227136e-16;-6.690025e-19;1.116913e-16;45;0;1.489217e-16;1.486992e-16;2.220446e-16;2.441278e-17;0;0;-2.441278e-17;-1.123676;2.220446e-16;-2.220446e-16;0
20.434315;-40.078805;-1.581385;0;0;0;0;-1.110223e-16;0;-1.355896e-18;0;0;0;0;1.655686e-20;-1.110389e-16;5.552771e-17;45;0;7.403695e-17;7.403143e-17;-1.110223e-16;-2.711793e-18;0;0;2.711793e-18;-1.600593;-1.110223e-16;1.110223e-16;0
22.047301;-40.078805;-2.104232;0;0;0;0;0;0;0;0;0;0;0;0;0;0;45;0;0;0;0;0;0;0;0;-2.128889;0;0;0
23.660287;-40.078805;-2.689903;0;0;0;0;2.220446e-16;-1.110223e-16;6.829066e-19;0;0;0;0;2.22046e-16;-1.110237e-16;1.665349e-16;45;0;2.220465e-16;1.958265e-16;2.220446e-16;5.430144e-18;-4.064331e-18;-1.110223e-16;-9.494475e-18;-2.712502;1.110223e-16;-1.110223e-16;0
25.273273;-40.078805;-3.333525;0;0;0;0;0;-1.110223e-16;-1.28756e-17;0;0;0;0;1.473663e-18;-1.12496e-16;5.698482e-17;45;0;7.597976e-17;7.549333e-17;0;-2.173294e-17;-4.018264e-18;-1.110223e-16;1.771468e-17;-3.351264;-1.110223e-16;1.110223e-16;0
26.886259;-40.078805;-4.028786;0;0;0;0;-1.110223e-16;2.220446e-16;-1.974618e-17;0;0;0;0;2.232112e-16;-1.121889e-16;1.677e-16;45;0;2.236e-16;1.971479e-16;-1.110223e-16;-4.346595e-17;3.973577e-18;2.220446e-16;4.743952e-17;-4.041522;1.110223e-16;-1.110223e-16;0
28.499246;-40.078805;-4.769542;0;0;0;0;0;0;-2.172973e-17;0;0;0;0;2.172973e-17;-2.172973e-17;2.172973e-17;45;0;2.897297e-17;2.509133e-17;0;-4.345946e-17;0;0;4.345946e-17;-4.783319;0;0;0
30.112232;-40.078805;-5.562869;0;0;0;0;0;2.220446e-16;3.873831e-18;0;0;0;0;2.221122e-16;-6.756299e-20;1.110899e-16;45;0;1.481198e-16;1.480973e-16;0;0;7.747661e-18;2.220446e-16;7.747661e-18;-5.577798;2.220446e-16;-2.220446e-16;0
31.725218;-40.078805;-6.41102;0;0;0;0;0;0;-1.086825e-17;0;0;0;0;1.086825e-17;-1.086825e-17;1.086825e-17;45;0;1.4491e-17;1.254957e-17;0;-2.17365e-17;0;0;2.17365e-17;-6.428921;0;0;0
33.338204;-40.078805;-7.320274;0;0;0;0;0;0;2.174397e-17;0;0;0;0;2.174397e-17;-2.174397e-17;2.174397e-17;45;0;2.899197e-17;2.510778e-17;0;4.348795e-17;0;0;-4.348795e-17;-7.344054;0;0;0
34.95119;-40.078805;-8.306708;0;0;0;0;0;-1.110223e-16;-1.83142e-18;0;0;0;0;3.020282e-20;-1.110525e-16;5.554135e-17;45;0;7.405514e-17;7.404507e-17;0;0;-3.66284e-18;-1.110223e-16;-3.66284e-18;-8.334328;-1.110223e-16;1.110223e-16;0
36.564176;-40.078805;-9.381289;0;0;0;0;2.220446e-16;0;5.066265e-18;0;0;0;0;2.221601e-16;-1.15534e-19;1.111378e-16;45;0;1.481838e-16;1.481453e-16;2.220446e-16;1.013253e-17;0;0;-1.013253e-17;-9.379629;2.220446e-16;-2.220446e-16;0
-40.859154;-41.691791;-16.379545;0;0;0;0;-1.110223e-16;2.220446e-16;9.533171e-18;0;0;0;0;2.223172e-16;-1.112949e-16;1.668061e-16;45;0;2.224081e-16;1.961341e-16;-1.110223e-16;5.108617e-17;-3.201983e-17;2.220446e-16;-8.3106e-17;-16.417743;1.110223e-16;-1.110223e-16;0
-39.246168;-41.691791;-14.879228;0;0;0;0;2.220446e-16;0;-5.444291e-18;0;0;0;0;2.22178e-16;-1.334079e-19;1.111557e-16;45;0;1.482076e-16;1.481632e-16;2.220446e-16;-1.088858e-17;0;0;1.088858e-17;-14.904493;2.220446e-16;-2.220446e-16;0
-37.633182;-41.691791;-13.447924;0;0;0;0;0;-1.110223e-16;1.253932e-17;0;0;0;0;1.398624e-18;-1.124209e-16;5.690977e-17;45;0;7.58797e-17;7.541782e-17;0;2.178128e-17;3.297363e-18;-1.110223e-16;-1.848391e-17;-13.47878;-1.110223e-16;1.110223e-16;0
-36.020196;-41.691791;-12.110479;0;0;0;0;2.220446e-16;0;-2.722307e-17;0;0;0;0;2.253335e-16;-3.288884e-18;1.143112e-16;45;0;1.524149e-16;1.513305e-16;2.220446e-16;-5.444615e-17;0;0;5.444615e-17;-12.141534;2.220446e-16;-2.220446e-16;0
-34.40721;-41.691791;-10.868377;0;0;0;0;0;0;0;0;0;0;0;0;0;0;45;0;0;0;0;0;0;0;0;-10.896147;0;0;0
-32.794224;-41.691791;-9.709102;0;0;0;0;2.220446e-16;2.220446e-16;1.546215e-17;0;0;0;0;2.375067e-16;2.065825e-16;1.546215e-17;45;0;2.06162e-17;1.491026e-16;2.220446e-16;3.808886e-17;-7.16456e-18;2.220446e-16;-4.525342e-17;-9.743703;4.440892e-16;-4.440892e-16;0
-31.181238;-41.691791;-8.652216;0;0;0;0;0;0;0;0;0;0;0;0;0;0;45;0;0;0;0;0;0;0;0;-8.673765;0;0;0
-29.568251;-41.691791;-7.658456;0;0;0;0;2.220446e-16;0;-2.720342e-18;0;0;0;0;2.220779e-16;-3.332281e-20;1.110556e-16;45;0;1.480742e-16;1.480631e-16;2.220446e-16;-5.440684e-18;0;0;5.440684e-18;-7.681455;2.220446e-16;-2.220446e-16;0
-27.955265;-41.691791;-6.731412;0;0;0;0;0;0;0;0;0;0;0;0;0;0;45;0;0;0;0;0;0;0;0;-6.757123;0;0;0
-26.342279;-41.691791;-5.877959;0;0;0;0;-1.110223e-16;0;1.087555e-17;0;0;0;0;1.055318e-18;-1.120776e-16;5.656647e-17;45;0;7.542196e-17;7.507266e-17;-1.110223e-16;2.17511e-17;0;0;-2.17511e-17;-5.897871;-1.110223e-16;1.110223e-16;0
-24.729293;-41.691791;-5.080941;0;0;0;0;0;0;0;0;0;0;0;0;0;0;45;0;0;0;0;0;0;0;0;-5.100119;0;0;0
-23.116307;-41.691791;-4.339032;0;0;0;0;0;-1.110223e-16;1.285516e-17;0;0;0;0;1.469047e-18;-1.124913e-16;5.69802e-17;45;0;7.59736e-17;7.548868e-17;0;2.174133e-17;3.968992e-18;-1.110223e-16;-1.777233e-17;-4.353297;-1.110223e-16;1.110223e-16;0
-21.503321;-41.691791;-3.639021;0;0;0;0;2.220446e-16;0;8.152436e-18;0;0;0;0;2.223435e-16;-2.989168e-19;1.113212e-16;45;0;1.484283e-16;1.483288e-16;2.220446e-16;1.630487e-17;0;0;-1.630487e-17;-3.654559;2.220446e-16;-2.220446e-16;0
-19.890335;-41.691791;-2.985425;0;0;0;0;2.220446e-16;0;8.151335e-18;0;0;0;0;2.223434e-16;-2.988362e-19;1.113211e-16;45;0;1.484282e-16;1.483287e-16;2.220446e-16;1.630267e-17;0;0;-1.630267e-17;-3.012907;2.220446e-16;-2.220446e-16;0
-18.277349;-41.691791;-2.41295;0;0;0;0;0;-1.110223e-16;2.061856e-18;0;0;0;0;3.827865e-20;-1.110606e-16;5.554943e-17;45;0;7.40659e-17;7.405315e-17;0;0;4.123712e-18;-1.110223e-16;4.123712e-18;-2.435359;-1.110223e-16;1.110223e-16;0
-16.664363;-41.691791;-1.906806;0;0;0;0;2.220446e-16;2.220446e-16;-3.431753e-18;0;0;0;0;2.254764e-16;2.186129e-16;3.431753e-18;45;0;4.575671e-18;1.480828e-16;2.220446e-16;-2.716556e-18;-4.14695e-18;2.220446e-16;-1.430394e-18;-1.905141;4.440892e-16;-4.440892e-16;0
-15.051377;-41.691791;-1.395365;0;0;0;0;0;-1.110223e-16;1.190968e-17;0;0;0;0;1.263212e-18;-1.122855e-16;5.677436e-17;45;0;7.569915e-17;7.528161e-17;0;2.172982e-17;2.089534e-18;-1.110223e-16;-1.964029e-17;-1.426774;-1.110223e-16;1.110223e-16;0
-13.438391;-41.691791;-0.976031;0;0;0;0;2.220446e-16;0;-2.308749e-17;0;0;0;0;2.244198e-16;-2.375157e-18;1.133975e-16;45;0;1.511966e-16;1.504111e-16;2.220446e-16;-4.617498e-17;0;0;4.617498e-17;-1.012586;2.220446e-16;-2.220446e-16;0
-11.825405;-41.691791;-0.660942;0;0;0;0;0;0;-2.172303e-17;0;0;0;0;2.172303e-17;-2.172303e-17;2.172303e-17;45;0;2.896404e-17;2.508359e-17;0;-4.344606e-17;0;0;4.344606e-17;-0.653032;0;0;0
-10.212419;-41.691791;-0.316022;0;0;0;0;-1.110223e-16;2.220446e-16;-1.162021e-17;0;0;0;0;2.224495e-16;-1.114272e-16;1.669384e-16;45;0;2.225845e-16;1.962841e-16;-1.110223e-16;-1.899635e-17;-4.244062e-18;2.220446e-16;1.475229e-17;-0.307111;1.110223e-16;-1.110223e-16;0
-8.599433;-41.691791;0.059029;0;0;0;0;0;2.220446e-16;-2.124964e-18;0;0;0;0;2.220649e-16;-2.033401e-20;1.110426e-16;45;0;1.480568e-16;1.480501e-16;0;1.943178e-22;-4.250122e-18;2.220446e-16;-4.250316e-18;0.041643;2.220446e-16;-2.220446e-16;0
-6.986447;-41.691791;0.383567;0;0;0;0;2.220446e-16;2.220446e-16;-1.07138e-18;0;0;0;0;2.23116e-16;2.209732e-16;1.07138e-18;45;0;1.428506e-18;1.480349e-16;2.220446e-16;7.744694e-22;-2.143534e-18;2.220446e-16;-2.144309e-18;0.350371;4.440892e-16;-4.440892e-16;0
-5.373461;-41.691791;0.60943;0;0;0;0;-1.110223e-16;0;-1.017162e-17;0;0;0;0;9.242075e-19;-1.119465e-16;5.643536e-17;45;0;7.524714e-17;7.494098e-17;-1.110223e-16;-2.034323e-17;0;0;2.034323e-17;0.578692;-1.110223e-16;1.110223e-16;0
-3.760475;-41.691791;0.744391;0;0;0;0;0;0;1.085229e-17;0;0;0;0;1.085229e-17;-1.085229e-17;1.085229e-17;45;0;1.446971e-17;1.253114e-17;0;2.170457e-17;0;0;-2.170457e-17;0.735789;0;0;0
-2.147489;-41.691791;0.856659;0;0;0;0;0;0;-1.085999e-17;0;0;0;0;1.085999e-17;-1.085999e-17;1.085999e-17;45;0;1.447999e-17;1.254004e-17;0;-2.171998e-17;0;0;2.171998e-17;0.855531;0;0;0
-0.534503;-41.691791;0.970358;0;0;0;0;-1.110223e-16;2.220446e-16;6.80979e-20;0;0;0;0;2.220446e-16;-1.110223e-16;1.665335e-16;45;0;2.220446e-16;1.95825e-16;-1.110223e-16;6.789244e-19;-5.427286e-19;2.220446e-16;-1.221653e-18;0.956291;1.110223e-16;-1.110223e-16;0
1.078483;-41.691791;1.044466;0;0;0;0;-1.110223e-16;-1.110223e-16;3.055342e-19;0;0;0;0;-1.107168e-16;-1.113278e-16;3.055342e-19;45;0;4.073789e-19;7.401571e-17;-1.110223e-16;3.393977e-19;2.716707e-19;-1.110223e-16;-6.772702e-20;1.032748;-2.220446e-16;2.220446e-16;0
2.691469;-41.691791;1.081056;0;0;0;0;-1.110223e-16;2.220446e-16;-6.387075e-21;0;0;0;0;2.220446e-16;-1.110223e-16;1.665335e-16;45;0;2.220446e-16;1.958249e-16;-1.110223e-16;2.120565e-20;-3.39798e-20;2.220446e-16;-5.518545e-20;1.061523;1.110223e-16;-1.110223e-16;0
4.304455;-41.691791;1.052383;0;0;0;0;0;-1.110223e-16;1.075203e-17;0;0;0;0;1.0317e-18;-1.12054e-16;5.654285e-17;45;0;7.539047e-17;7.504893e-17;0;2.204735e-17;-5.4329e-19;-1.110223e-16;-2.259064e-17;1.033438;-1.110223e-16;1.110223e-16;0
5.917441;-41.691791;0.959144;0;0;0;0;0;0;1.051319e-17;0;0;0;0;1.051319e-17;-1.051319e-17;1.051319e-17;45;0;1.401759e-17;1.213959e-17;0;2.102638e-17;0;0;-2.102638e-17;0.948075;0;0;0
7.530427;-41.691791;0.824368;0;0;0;0;2.220446e-16;0;1.153099e-17;0;0;0;0;2.226418e-16;-5.972091e-19;1.116195e-16;45;0;1.48826e-16;1.486273e-16;2.220446e-16;2.306198e-17;0;0;-2.306198e-17;0.81816;2.220446e-16;-2.220446e-16;0
9.143413;-41.691791;0.661518;0;0;0;0;0;2.220446e-16;-2.062682e-17;0;0;0;0;2.239445e-16;-1.89987e-18;1.129222e-16;45;0;1.505629e-16;1.499336e-16;0;-4.341452e-17;2.160889e-18;2.220446e-16;4.557541e-17;0.6519;2.220446e-16;-2.220446e-16;0
10.756399;-41.691791;0.459283;0;0;0;0;0;0;-1.085089e-17;0;0;0;0;1.085089e-17;-1.085089e-17;1.085089e-17;45;0;1.446786e-17;1.252953e-17;0;-2.170178e-17;0;0;2.170178e-17;0.450793;0;0;0
12.369385;-41.691791;0.221343;0;0;0;0;0;0;1.084491e-17;0;0;0;0;1.084491e-17;-1.084491e-17;1.084491e-17;45;0;1.445988e-17;1.252263e-17;0;2.168982e-17;0;0;-2.168982e-17;0.208754;0;0;0
13.982371;-41.691791;-0.061394;0;0;0;0;2.220446e-16;-1.110223e-16;-1.055554e-17;0;0;0;0;2.223788e-16;-1.113565e-16;1.668676e-16;45;0;2.224902e-16;1.962039e-16;2.220446e-16;-1.897604e-17;-2.135039e-18;-1.110223e-16;1.6841e-17;-0.078906;1.110223e-16;-1.110223e-16;0
15.595357;-41.691791;-0.399093;0;0;0;0;-1.110223e-16;0;-1.355836e-18;0;0;0;0;1.655539e-20;-1.110389e-16;5.552771e-17;45;0;7.403694e-17;7.403143e-17;-1.110223e-16;-2.711672e-18;0;0;2.711672e-18;-0.418489;-1.110223e-16;1.110223e-16;0
17.208343;-41.691791;-0.794607;0;0;0;0;0;0;1.085351e-17;0;0;0;0;1.085351e-17;-1.085351e-17;1.085351e-17;45;0;1.447135e-17;1.253255e-17;0;2.170702e-17;0;0;-2.170702e-17;-0.809013;0;0;0
18.821329;-41.691791;-1.233757;0;0;0;0;0;0;-6.863834e-23;0;0;0;0;6.863834e-23;-6.863834e-23;6.863834e-23;45;0;9.151779e-23;7.925673e-23;0;-1.372767e-22;0;0;1.372767e-22;-1.246486;0;0;0
20.434315;-41.691791;-1.713287;0;0;0;0;2.220446e-16;2.220446e-16;1.427858e-17;0;0;0;0;2.363232e-16;2.07766e-16;1.427858e-17;45;0;1.903811e-17;1.489451e-16;2.220446e-16;2.440583e-17;4.151332e-18;2.220446e-16;-2.02545e-17;-1.727844;4.440892e-16;-4.440892e-16;0
22.047301;-41.691791;-2.237155;0;0;0;0;0;0;1.084655e-17;0;0;0;0;1.084655e-17;-1.084655e-17;1.084655e-17;45;0;1.446207e-17;1.252452e-17;0;2.16931e-17;0;0;-2.16931e-17;-2.255555;0;0;0
23.660287;-41.691791;-2.81139;0;0;0;0;2.220446e-16;2.220446e-16;4.748376e-18;0;0;0;0;2.26793e-16;2.172962e-16;4.748376e-18;45;0;6.331168e-18;1.481312e-16;2.220446e-16;5.425761e-18;4.070991e-18;2.220446e-16;-1.35477e-18;-2.834508;4.440892e-16;-4.440892e-16;0
25.273273;-41.691791;-3.44567;0;0;0;0;-1.110223e-16;0;-2.715234e-18;0;0;0;0;6.636588e-20;-1.110887e-16;5.557752e-17;45;0;7.410336e-17;7.408124e-17;-1.110223e-16;-5.430468e-18;0;0;5.430468e-18;-3.467755;-1.110223e-16;1.110223e-16;0
26.886259;-41.691791;-4.137765;0;0;0;0;2.220446e-16;-1.110223e-16;1.975076e-17;0;0;0;0;2.232117e-16;-1.121894e-16;1.677006e-16;45;0;2.236008e-16;1.971485e-16;2.220446e-16;4.347413e-17;-3.972616e-18;-1.110223e-16;-4.744675e-17;-4.156636;1.110223e-16;-1.110223e-16;0
28.499246;-41.691791;-4.884812;0;0;0;0;-1.110223e-16;0;-2.717611e-18;0;0;0;0;6.648204e-20;-1.110888e-16;5.557763e-17;45;0;7.410351e-17;7.408136e-17;-1.110223e-16;-5.435222e-18;0;0;5.435222e-18;-4.899411;-1.110223e-16;1.110223e-16;0
30.112232;-41.691791;-5.681754;0;0;0;0;0;0;0;0;0;0;0;0;0;0;45;0;0;0;0;0;0;0;0;-5.69501;0;0;0
31.725218;-41.691791;-6.529636;0;0;0;0;2.220446e-16;0;-1.90257e-17;0;0;0;0;2.23663e-16;-1.618405e-18;1.126407e-16;45;0;1.501876e-16;1.496511e-16;2.220446e-16;-3.80514e-17;0;0;3.80514e-17;-6.549723;2.220446e-16;-2.220446e-16;0
33.338204;-41.691791;-7.438185;0;0;0;0;0;0;2.174166e-17;0;0;0;0;2.174166e-17;-2.174166e-17;2.174166e-17;45;0;2.898889e-17;2.510511e-17;0;4.348333e-17;0;0;-4.348333e-17;-7.463842;0;0;0
34.95119;-41.691791;-8.420886;0;0;0;0;2.220446e-16;-1.110223e-16;-1.27061e-17;0;0;0;0;2.225286e-16;-1.115063e-16;1.670175e-16;45;0;2.2269e-16;1.963738e-16;2.220446e-16;-2.175206e-17;-3.660135e-18;-1.110223e-16;1.809193e-17;-8.458442;1.110223e-16;-1.110223e-16;0
36.564176;-41.691791;-9.511071;0;0;0;0;2.220446e-16;0;2.063212e-17;0;0;0;0;2.239455e-16;-1.90084e-18;1.129231e-16;45;0;1.505642e-16;1.499346e-16;2.220446e-16;4.126425e-17;0;0;-4.126425e-17;-9.512948;2.220446e-16;-2.220446e-16;0
-42.47214;-43.304777;-18.147667;0;0;0;0;0;0;-2.178174e-17;0;0;0;0;2.178174e-17;-2.178174e-17;2.178174e-17;45;0;2.904232e-17;2.515139e-17;0;-4.356349e-17;0;0;4.356349e-17;-18.141967;0;0;0
-40.859154;-43.304777;-16.517615;0;0;0;0;-2.220446e-16;-1.110223e-16;3.930517e-17;0;0;0;0;-9.851592e-17;-2.34551e-16;6.801753e-17;45;0;9.069004e-17;1.359944e-16;-2.220446e-16;5.227568e-17;2.633467e-17;-1.110223e-16;-2.594101e-17;-16.54566;-3.330669e-16;3.330669e-16;0
-39.246168;-43.304777;-14.994637;0;0;0;0;-2.220446e-16;-1.110223e-16;-3.843849e-18;0;0;0;0;-1.108894e-16;-2.221775e-16;5.564408e-17;45;0;7.41921e-17;1.282743e-16;-2.220446e-16;-1.08891e-17;3.201407e-18;-1.110223e-16;1.409051e-17;-15.019344;-3.330669e-16;3.330669e-16;0
-37.633182;-43.304777;-13.544944;0;0;0;0;0;2.220446e-16;-3.290716e-18;0;0;0;0;2.220934e-16;-4.875793e-20;1.110711e-16;45;0;1.480948e-16;1.480785e-16;0;0;-6.581432e-18;2.220446e-16;-6.581432e-18;-13.587359;2.220446e-16;-2.220446e-16;0
-36.020196;-43.304777;-12.206526;0;0;0;0;2.220446e-16;0;-5.441696e-18;0;0;0;0;2.221779e-16;-1.332809e-19;1.111556e-16;45;0;1.482074e-16;1.48163e-16;2.220446e-16;-1.088339e-17;0;0;1.088339e-17;-12.24969;2.220446e-16;-2.220446e-16;0
-34.40721;-43.304777;-10.978363;0;0;0;0;0;0;-3.264734e-17;0;0;0;0;3.264734e-17;-3.264734e-17;3.264734e-17;45;0;4.352979e-17;3.76979e-17;0;-6.529468e-17;0;0;6.529468e-17;-11.007085;0;0;0
-32.794224;-43.304777;-9.820968;0;0;0;0;0;2.220446e-16;-3.580273e-18;0;0;0;0;2.221023e-16;-5.771375e-20;1.1108e-16;45;0;1.481067e-16;1.480875e-16;0;0;-7.160547e-18;2.220446e-16;-7.160547e-18;-9.856947;2.220446e-16;-2.220446e-16;0
-31.181238;-43.304777;-8.753355;0;0;0;0;2.220446e-16;-1.110223e-16;1.83406e-18;0;0;0;0;2.220547e-16;-1.110324e-16;1.665436e-16;45;0;2.220581e-16;1.958364e-16;2.220446e-16;1.740961e-21;3.666378e-18;-1.110223e-16;3.664638e-18;-8.787435;1.110223e-16;-1.110223e-16;0
-29.568251;-43.304777;-7.760536;0;0;0;0;0;2.220446e-16;1.801005e-17;0;0;0;0;2.234959e-16;-1.45131e-18;1.124736e-16;45;0;1.499648e-16;1.494834e-16;0;4.349028e-17;-7.470187e-18;2.220446e-16;-5.096047e-17;-7.793673;2.220446e-16;-2.220446e-16;0
-27.955265;-43.304777;-6.831884;0;0;0;0;0;-1.110223e-16;2.364447e-17;0;0;0;0;4.82581e-18;-1.158481e-16;6.033696e-17;45;0;8.044928e-17;7.88899e-17;0;4.348257e-17;3.806377e-18;-1.110223e-16;-3.967619e-17;-6.869758;-1.110223e-16;1.110223e-16;0
-26.342279;-43.304777;-5.986277;0;0;0;0;-1.110223e-16;0;2.445519e-17;0;0;0;0;5.148097e-18;-1.161704e-16;6.065925e-17;45;0;8.0879e-17;7.921874e-17;-1.110223e-16;4.891039e-17;0;0;-4.891039e-17;-6.010917;-1.110223e-16;1.110223e-16;0
-24.729293;-43.304777;-5.195699;0;0;0;0;2.220446e-16;0;0;0;0;0;0;2.220446e-16;0;1.110223e-16;45;0;1.480297e-16;1.480297e-16;2.220446e-16;0;0;0;0;-5.212821;2.220446e-16;-2.220446e-16;0
-23.116307;-43.304777;-4.447273;0;0;0;0;0;-1.110223e-16;-8.884846e-18;0;0;0;0;7.065364e-19;-1.117288e-16;5.621769e-17;45;0;7.495692e-17;7.472252e-17;0;-2.173642e-17;3.966731e-18;-1.110223e-16;2.570316e-17;-4.465577;-1.110223e-16;1.110223e-16;0
-21.503321;-43.304777;-3.746174;0;0;0;0;0;2.220446e-16;8.86006e-18;0;0;0;0;2.223976e-16;-3.529744e-19;1.113753e-16;45;0;1.485004e-16;1.483828e-16;0;2.173161e-17;-4.011494e-18;2.220446e-16;-2.574311e-17;-3.767156;2.220446e-16;-2.220446e-16;0
-19.890335;-43.304777;-3.096433;0;0;0;0;0;2.220446e-16;-2.375558e-17;0;0;0;0;2.245577e-16;-2.513064e-18;1.135354e-16;45;0;1.513805e-16;1.505498e-16;0;-4.344663e-17;-4.06454e-18;2.220446e-16;3.938209e-17;-3.125738;2.220446e-16;-2.220446e-16;0
-18.277349;-43.304777;-2.518996;0;0;0;0;2.220446e-16;0;-1.356991e-18;0;0;0;0;2.220529e-16;-8.292734e-21;1.110306e-16;45;0;1.480408e-16;1.48038e-16;2.220446e-16;-2.713983e-18;0;0;2.713983e-18;-2.547654;2.220446e-16;-2.220446e-16;0
-16.664363;-43.304777;-2.011448;0;0;0;0;2.220446e-16;2.220446e-16;-3.431813e-18;0;0;0;0;2.254764e-16;2.186128e-16;3.431813e-18;45;0;4.575751e-18;1.480828e-16;2.220446e-16;-2.714916e-18;-4.14871e-18;2.220446e-16;-1.433795e-18;-2.017916;4.440892e-16;-4.440892e-16;0
-15.051377;-43.304777;-1.504578;0;0;0;0;2.220446e-16;-1.110223e-16;1.158831e-17;0;0;0;0;2.224473e-16;-1.11425e-16;1.669362e-16;45;0;2.225815e-16;1.962816e-16;2.220446e-16;1.899691e-17;4.179707e-18;-1.110223e-16;-1.48172e-17;-1.540335;1.110223e-16;-1.110223e-16;0
-13.438391;-43.304777;-1.080389;0;0;0;0;2.220446e-16;-1.110223e-16;-2.951556e-19;0;0;0;0;2.220449e-16;-1.110226e-16;1.665337e-16;45;0;2.220449e-16;1.958252e-16;2.220446e-16;-2.710213e-18;2.119901e-18;-1.110223e-16;4.830114e-18;-1.127193;1.110223e-16;-1.110223e-16;0
-11.825405;-43.304777;-0.769297;0;0;0;0;0;2.220446e-16;2.063245e-17;0;0;0;0;2.239455e-16;-1.900901e-18;1.129232e-16;45;0;1.505643e-16;1.499347e-16;0;4.339634e-17;-2.131435e-18;2.220446e-16;-4.552778e-17;-0.768924;2.220446e-16;-2.220446e-16;0
-10.212419;-43.304777;-0.43526;0;0;0;0;2.220446e-16;-1.110223e-16;1.191018e-17;0;0;0;0;2.224699e-16;-1.114477e-16;1.669588e-16;45;0;2.226117e-16;1.963073e-16;2.220446e-16;2.169705e-17;2.123313e-18;-1.110223e-16;-1.957374e-17;-0.425796;1.110223e-16;-1.110223e-16;0
-8.599433;-43.304777;-0.059885;0;0;0;0;-1.110223e-16;-1.110223e-16;2.418166e-18;0;0;0;0;-1.086041e-16;-1.134405e-16;2.418166e-18;45;0;3.224222e-18;7.406752e-17;-1.110223e-16;2.711262e-18;2.125071e-18;-1.110223e-16;-5.861912e-19;-0.079961;-2.220446e-16;2.220446e-16;0
-6.986447;-43.304777;0.265193;0;0;0;0;0;0;1.084484e-17;0;0;0;0;1.084484e-17;-1.084484e-17;1.084484e-17;45;0;1.445979e-17;1.252254e-17;0;2.168968e-17;0;0;-2.168968e-17;0.228992;0;0;0
-5.373461;-43.304777;0.492148;0;0;0;0;0;0;2.169008e-17;0;0;0;0;2.169008e-17;-2.169008e-17;2.169008e-17;45;0;2.892011e-17;2.504555e-17;0;4.338017e-17;0;0;-4.338017e-17;0.459055;0;0;0
-3.760475;-43.304777;0.627709;0;0;0;0;-1.110223e-16;2.220446e-16;-2.029723e-19;0;0;0;0;2.220447e-16;-1.110224e-16;1.665336e-16;45;0;2.220448e-16;1.958251e-16;-1.110223e-16;6.77982e-19;-1.083927e-18;2.220446e-16;-1.761909e-18;0.620293;1.110223e-16;-1.110223e-16;0
-2.147489;-43.304777;0.749556;0;0;0;0;0;-1.110223e-16;5.421993e-19;0;0;0;0;2.647874e-21;-1.110249e-16;5.55138e-17;45;0;7.40184e-17;7.401752e-17;0;0;1.084399e-18;-1.110223e-16;1.084399e-18;0.7447;-1.110223e-16;1.110223e-16;0
-0.534503;-43.304777;0.871237;0;0;0;0;0;2.220446e-16;-5.427367e-19;0;0;0;0;2.220459e-16;-1.326586e-21;1.110236e-16;45;0;1.480315e-16;1.480311e-16;0;0;-1.085473e-18;2.220446e-16;-1.085473e-18;0.846495;2.220446e-16;-2.220446e-16;0
1.078483;-43.304777;0.943198;0;0;0;0;-1.110223e-16;-1.110223e-16;1.115324e-17;0;0;0;0;-9.986906e-17;-1.221755e-16;1.115324e-17;45;0;1.487099e-17;7.512696e-17;-1.110223e-16;2.203478e-17;2.716971e-19;-1.110223e-16;-2.176308e-17;0.92002;-2.220446e-16;2.220446e-16;0
2.691469;-43.304777;0.977847;0;0;0;0;2.220446e-16;0;-1.084355e-17;0;0;0;0;2.225729e-16;-5.282876e-19;1.115506e-16;45;0;1.487341e-16;1.485583e-16;2.220446e-16;-2.168709e-17;0;0;2.168709e-17;0.943706;2.220446e-16;-2.220446e-16;0
4.304455;-43.304777;0.945016;0;0;0;0;0;2.220446e-16;1.022332e-19;0;0;0;0;2.220447e-16;-4.706994e-23;1.110224e-16;45;0;1.480298e-16;1.480298e-16;0;-3.387953e-19;5.432617e-19;2.220446e-16;8.82057e-19;0.913014;2.220446e-16;-2.220446e-16;0
5.917441;-43.304777;0.849409;0;0;0;0;0;2.220446e-16;1.104637e-17;0;0;0;0;2.225928e-16;-5.481859e-19;1.115705e-16;45;0;1.487607e-16;1.485783e-16;0;2.100807e-17;1.084664e-18;2.220446e-16;-1.992341e-17;0.827239;2.220446e-16;-2.220446e-16;0
7.530427;-43.304777;0.71527;0;0;0;0;-1.110223e-16;0;-6.778508e-19;0;0;0;0;4.138489e-21;-1.110264e-16;5.551529e-17;45;0;7.402039e-17;7.401901e-17;-1.110223e-16;-1.355702e-18;0;0;1.355702e-18;0.699219;-1.110223e-16;1.110223e-16;0
9.143413;-43.304777;0.555792;0;0;0;0;-1.110223e-16;0;1.017155e-17;0;0;0;0;9.241956e-19;-1.119465e-16;5.643534e-17;45;0;7.524713e-17;7.494096e-17;-1.110223e-16;2.03431e-17;0;0;-2.03431e-17;0.533873;-1.110223e-16;1.110223e-16;0
10.756399;-43.304777;0.350215;0;0;0;0;-1.110223e-16;0;1.017e-17;0;0;0;0;9.239161e-19;-1.119462e-16;5.643507e-17;45;0;7.524675e-17;7.494068e-17;-1.110223e-16;2.034e-17;0;0;-2.034e-17;0.329791;-1.110223e-16;1.110223e-16;0
12.369385;-43.304777;0.100404;0;0;0;0;0;-1.110223e-16;-1.072452e-18;0;0;0;0;1.035869e-20;-1.110327e-16;5.552151e-17;45;0;7.402868e-17;7.402523e-17;0;0;-2.144904e-18;-1.110223e-16;-2.144904e-18;0.082301;-1.110223e-16;1.110223e-16;0
13.982371;-43.304777;-0.188902;0;0;0;0;0;0;0;0;0;0;0;0;0;0;45;0;0;0;0;0;0;0;0;-0.208359;0;0;0
15.595357;-43.304777;-0.523515;0;0;0;0;2.220446e-16;0;1.355283e-18;0;0;0;0;2.220529e-16;-8.271872e-21;1.110306e-16;45;0;1.480408e-16;1.48038e-16;2.220446e-16;2.710567e-18;0;0;-2.710567e-18;-0.54478;2.220446e-16;-2.220446e-16;0
17.208343;-43.304777;-0.910555;0;0;0;0;-1.110223e-16;0;9.493126e-18;0;0;0;0;8.058741e-19;-1.118282e-16;5.631702e-17;45;0;7.508936e-17;7.482219e-17;-1.110223e-16;1.898625e-17;0;0;-1.898625e-17;-0.932693;-1.110223e-16;1.110223e-16;0
18.821329;-43.304777;-1.35285;0;0;0;0;0;2.220446e-16;-8.760243e-18;0;0;0;0;2.223897e-16;-3.450783e-19;1.113674e-16;45;0;1.484898e-16;1.483749e-16;0;-2.169847e-17;4.177982e-18;2.220446e-16;2.587645e-17;-1.371485;2.220446e-16;-2.220446e-16;0
20.434315;-43.304777;-1.842461;0;0;0;0;2.220446e-16;0;1.355801e-17;0;0;0;0;2.228694e-16;-8.247864e-19;1.118471e-16;45;0;1.491295e-16;1.488553e-16;2.220446e-16;2.711602e-17;0;0;-2.711602e-17;-1.857568;2.220446e-16;-2.220446e-16;0
22.047301;-43.304777;-2.374827;0;0;0;0;-1.110223e-16;-1.110223e-16;-4.769059e-18;0;0;0;0;-1.062532e-16;-1.157914e-16;4.769059e-18;45;0;6.358745e-18;7.421944e-17;-1.110223e-16;-5.423134e-18;-4.114984e-18;-1.110223e-16;1.30815e-18;-2.386618;-2.220446e-16;2.220446e-16;0
23.660287;-43.304777;-2.945358;0;0;0;0;0;2.220446e-16;2.373823e-17;0;0;0;0;2.24554e-16;-2.509434e-18;1.135317e-16;45;0;1.513757e-16;1.505461e-16;0;4.340023e-17;4.07622e-18;2.220446e-16;-3.932401e-17;-2.962155;2.220446e-16;-2.220446e-16;0
25.273273;-43.304777;-3.568513;0;0;0;0;-1.110223e-16;0;3.256887e-17;0;0;0;0;8.848923e-18;-1.198712e-16;6.436008e-17;45;0;8.581343e-17;8.302113e-17;-1.110223e-16;6.513774e-17;0;0;-6.513774e-17;-3.590196;-1.110223e-16;1.110223e-16;0
26.886259;-43.304777;-4.24889;0;0;0;0;0;2.220446e-16;1.986767e-18;0;0;0;0;2.220624e-16;-1.777537e-20;1.110401e-16;45;0;1.480534e-16;1.480475e-16;0;0;3.973533e-18;2.220446e-16;3.973533e-18;-4.277749;2.220446e-16;-2.220446e-16;0
28.499246;-43.304777;-4.992217;0;0;0;0;0;-1.110223e-16;8.899936e-18;0;0;0;0;7.089231e-19;-1.117312e-16;5.622007e-17;45;0;7.49601e-17;7.472491e-17;0;2.172052e-17;-3.920646e-18;-1.110223e-16;-2.564116e-17;-5.02219;-1.110223e-16;1.110223e-16;0
30.112232;-43.304777;-5.788058;0;0;0;0;0;-1.110223e-16;-1.279686e-17;0;0;0;0;1.455922e-18;-1.124782e-16;5.696708e-17;45;0;7.59561e-17;7.547547e-17;0;-2.172077e-17;-3.872947e-18;-1.110223e-16;1.784782e-17;-5.820635;-1.110223e-16;1.110223e-16;0
31.725218;-43.304777;-6.635183;0;0;0;0;0;2.220446e-16;-1.248844e-17;0;0;0;0;2.227448e-16;-7.001789e-19;1.117225e-16;45;0;1.489633e-16;1.487305e-16;0;-3.258697e-17;7.610083e-18;2.220446e-16;4.019705e-17;-6.678154;2.220446e-16;-2.220446e-16;0
33.338204;-43.304777;-7.580525;0;0;0;0;2.220446e-16;2.220446e-16;6.464005e-18;0;0;0;0;2.285086e-16;2.155806e-16;6.464005e-18;45;0;8.618673e-18;1.482178e-16;2.220446e-16;5.431437e-18;7.496573e-18;2.220446e-16;2.065137e-18;-7.591391;4.440892e-16;-4.440892e-16;0
34.95119;-43.304777;-8.532161;0;0;0;0;-1.110223e-16;0;-1.192986e-17;0;0;0;0;1.267448e-18;-1.122898e-16;5.67786e-17;45;0;7.57048e-17;7.528587e-17;-1.110223e-16;-2.385971e-17;0;0;2.385971e-17;-8.58312;-1.110223e-16;1.110223e-16;0
36.564176;-43.304777;-9.634877;0;0;0;0;0;0;2.173839e-17;0;0;0;0;2.173839e-17;-2.173839e-17;2.173839e-17;45;0;2.898452e-17;2.510134e-17;0;4.347679e-17;0;0;-4.347679e-17;-9.638377;0;0;0
38.177162;-43.304777;-10.734928;0;0;0;0;-3.330669e-16;-1.110223e-16;-1.643748e-16;0;0;0;0;-2.36888e-17;-4.204004e-16;1.983558e-16;45;0;2.644744e-16;2.727138e-16;-3.330669e-16;-2.830337e-16;-4.571593e-17;-1.110223e-16;2.373177e-16;-10.734928;-4.440892e-16;4.440892e-16;0
-42.47214;-44.917763;-18.260134;0;0;0;0;0;0;1.946984e-17;0;0;0;0;1.946984e-17;-1.946984e-17;1.946984e-17;45;0;2.595979e-17;2.248184e-17;0;0;3.893969e-17;0;3.893969e-17;-18.260858;0;0;0
-40.859154;-44.917763;-16.632978;0;0;0;0;0;0;-6.149586e-17;0;0;0;0;6.149586e-17;-6.149586e-17;6.149586e-17;45;0;8.199447e-17;7.100929e-17;0;-1.229917e-16;0;0;1.229917e-16;-16.668203;0;0;0
-39.246168;-44.917763;-15.111496;0;0;0;0;0;-2.220446e-16;1.817762e-18;0;0;0;0;1.488006e-20;-2.220595e-16;1.110372e-16;45;0;1.480496e-16;1.480446e-16;0;0;3.635524e-18;-2.220446e-16;3.635524e-18;-15.136737;-2.220446e-16;2.220446e-16;0
-37.633182;-44.917763;-13.665735;0;0;0;0;0;2.220446e-16;2.853482e-17;0;0;0;0;2.25653e-16;-3.608355e-18;1.146307e-16;45;0;1.528409e-16;1.516524e-16;0;6.08084e-17;-3.738765e-18;2.220446e-16;-6.454717e-17;-13.700829;2.220446e-16;-2.220446e-16;0
-36.020196;-44.917763;-12.325258;0;0;0;0;0;2.220446e-16;-1.933235e-18;0;0;0;0;2.220614e-16;-1.683047e-20;1.110391e-16;45;0;1.480522e-16;1.480466e-16;0;0;-3.86647e-18;2.220446e-16;-3.86647e-18;-12.363532;2.220446e-16;-2.220446e-16;0
-34.40721;-44.917763;-11.099604;0;0;0;0;0;2.220446e-16;-1.987414e-18;0;0;0;0;2.220624e-16;-1.778696e-20;1.110401e-16;45;0;1.480535e-16;1.480475e-16;0;0;-3.974829e-18;2.220446e-16;-3.974829e-18;-11.123316;2.220446e-16;-2.220446e-16;0
-32.794224;-44.917763;-9.945087;0;0;0;0;2.220446e-16;0;2.765992e-17;0;0;0;0;2.254383e-16;-3.393706e-18;1.14416e-16;45;0;1.525547e-16;1.514361e-16;2.220446e-16;5.531984e-17;0;0;-5.531984e-17;-9.976713;2.220446e-16;-2.220446e-16;0
-31.181238;-44.917763;-8.885447;0;0;0;0;0;0;-2.969986e-17;0;0;0;0;2.969986e-17;-2.969986e-17;2.969986e-17;45;0;3.959982e-17;3.429445e-17;0;-5.939973e-17;0;0;5.939973e-17;-8.910761;0;0;0
-29.568251;-44.917763;-7.901748;0;0;0;0;0;0;-2.696649e-17;0;0;0;0;2.696649e-17;-2.696649e-17;2.696649e-17;45;0;3.595532e-17;3.113822e-17;0;-5.393298e-17;0;0;5.393298e-17;-7.918401;0;0;0
-27.955265;-44.917763;-6.968007;0;0;0;0;0;2.220446e-16;2.818615e-17;0;0;0;0;2.255667e-16;-3.522059e-18;1.145444e-16;45;0;1.527258e-16;1.515654e-16;0;6.069513e-17;-4.322835e-18;2.220446e-16;-6.501797e-17;-6.993765;2.220446e-16;-2.220446e-16;0
-26.342279;-44.917763;-6.111541;0;0;0;0;0;2.220446e-16;-2.200003e-18;0;0;0;0;2.220664e-16;-2.179534e-20;1.110441e-16;45;0;1.480588e-16;1.480515e-16;0;0;-4.400006e-18;2.220446e-16;-4.400006e-18;-6.131358;2.220446e-16;-2.220446e-16;0
-24.729293;-44.917763;-5.314527;0;0;0;0;0;0;6.072339e-17;0;0;0;0;6.072339e-17;-6.072339e-17;6.072339e-17;45;0;8.096452e-17;7.011733e-17;0;1.214468e-16;0;0;-1.214468e-16;-5.329402;0;0;0
-23.116307;-44.917763;-4.562139;0;0;0;0;2.220446e-16;0;-3.381098e-18;0;0;0;0;2.220961e-16;-5.147244e-20;1.110738e-16;45;0;1.480984e-16;1.480812e-16;2.220446e-16;-6.762197e-18;0;0;6.762197e-18;-4.580683;2.220446e-16;-2.220446e-16;0
-21.503321;-44.917763;-3.865383;0;0;0;0;0;2.220446e-16;2.92139e-17;0;0;0;0;2.258239e-16;-3.779282e-18;1.148016e-16;45;0;1.530688e-16;1.518247e-16;0;6.070904e-17;-2.281232e-18;2.220446e-16;-6.299027e-17;-3.883683;2.220446e-16;-2.220446e-16;0
-19.890335;-44.917763;-3.223526;0;0;0;0;0;0;-3.03419e-17;0;0;0;0;3.03419e-17;-3.03419e-17;3.03419e-17;45;0;4.045588e-17;3.503581e-17;0;-6.068381e-17;0;0;6.068381e-17;-3.244217;0;0;0
-18.277349;-44.917763;-2.643741;0;0;0;0;0;0;-3.311861e-19;0;0;0;0;3.311861e-19;-3.311861e-19;3.311861e-19;45;0;4.415815e-19;3.824208e-19;0;-6.623722e-19;0;0;6.623722e-19;-2.665611;0;0;0
-16.664363;-44.917763;-2.129565;0;0;0;0;2.220446e-16;2.220446e-16;-4.556342e-18;0;0;0;0;2.26601e-16;2.174883e-16;4.556342e-18;45;0;6.075123e-18;1.481232e-16;2.220446e-16;-6.754291e-18;-2.358394e-18;2.220446e-16;4.395897e-18;-2.137033;4.440892e-16;-4.440892e-16;0
-15.051377;-44.917763;-1.637793;0;0;0;0;-1.110223e-16;-2.220446e-16;2.876694e-18;0;0;0;0;-1.109478e-16;-2.221191e-16;5.558564e-17;45;0;7.411419e-17;1.282405e-16;-1.110223e-16;3.376215e-18;2.377173e-18;-2.220446e-16;-9.990422e-19;-1.662799;-3.330669e-16;3.330669e-16;0
-13.438391;-44.917763;-1.221037;0;0;0;0;0;-2.220446e-16;-2.94292e-17;0;0;0;0;3.834259e-18;-2.258789e-16;1.148566e-16;45;0;1.531421e-16;1.518801e-16;0;-6.12673e-17;2.408888e-18;-2.220446e-16;6.367618e-17;-1.252712;-2.220446e-16;2.220446e-16;0
-11.825405;-44.917763;-0.899307;0;0;0;0;2.220446e-16;0;2.960625e-17;0;0;0;0;2.259244e-16;-3.879749e-18;1.149021e-16;45;0;1.532027e-16;1.51926e-16;2.220446e-16;5.921249e-17;0;0;-5.921249e-17;-0.894125;2.220446e-16;-2.220446e-16;0
-10.212419;-44.917763;-0.562032;0;0;0;0;2.220446e-16;2.220446e-16;-2.560861e-18;0;0;0;0;2.246055e-16;2.194837e-16;2.560861e-18;45;0;3.414481e-18;1.480593e-16;2.220446e-16;-2.708521e-18;-2.413201e-18;2.220446e-16;2.953207e-19;-0.549928;4.440892e-16;-4.440892e-16;0
-8.599433;-44.917763;-0.188447;0;0;0;0;0;0;-3.097685e-17;0;0;0;0;3.097685e-17;-3.097685e-17;3.097685e-17;45;0;4.130246e-17;3.576898e-17;0;-6.19537e-17;0;0;6.19537e-17;-0.205424;0;0;0
-6.986447;-44.917763;0.134206;0;0;0;0;-1.110223e-16;0;8.440254e-19;0;0;0;0;6.416168e-21;-1.110287e-16;5.551757e-17;45;0;7.402342e-17;7.402128e-17;-1.110223e-16;1.688051e-18;0;0;-1.688051e-18;0.103814;-1.110223e-16;1.110223e-16;0
-5.373461;-44.917763;0.365682;0;0;0;0;0;-2.220446e-16;6.137547e-19;0;0;0;0;1.69647e-21;-2.220463e-16;1.11024e-16;45;0;1.48032e-16;1.480314e-16;0;0;1.227509e-18;-2.220446e-16;1.227509e-18;0.336352;-2.220446e-16;2.220446e-16;0
-3.760475;-44.917763;0.509169;0;0;0;0;2.220446e-16;-2.220446e-16;-3.102216e-17;0;0;0;0;2.242012e-16;-2.242012e-16;2.242012e-16;45;0;2.989349e-16;2.588852e-16;2.220446e-16;-6.266012e-17;6.158049e-19;-2.220446e-16;6.327592e-17;0.500914;0;0;0
-2.147489;-44.917763;0.627892;0;0;0;0;2.220446e-16;0;3.030758e-17;0;0;0;0;2.261071e-16;-4.062454e-18;1.150848e-16;45;0;1.534463e-16;1.521103e-16;2.220446e-16;6.061516e-17;0;0;-6.061516e-17;0.627464;2.220446e-16;-2.220446e-16;0
-0.534503;-44.917763;0.74533;0;0;0;0;2.220446e-16;-2.220446e-16;3.045643e-17;0;0;0;0;2.241236e-16;-2.241236e-16;2.241236e-16;45;0;2.988315e-16;2.587957e-16;2.220446e-16;6.060447e-17;3.084003e-19;-2.220446e-16;-6.029606e-17;0.727661;0;0;0
1.078483;-44.917763;0.80976;0;0;0;0;0;0;-3.053851e-17;0;0;0;0;3.053851e-17;-3.053851e-17;3.053851e-17;45;0;4.071802e-17;3.526284e-17;0;-6.107702e-17;0;0;6.107702e-17;0.797341;0;0;0
2.691469;-44.917763;0.836932;0;0;0;0;-1.110223e-16;0;-1.316936e-20;0;0;0;0;1.562137e-24;-1.110223e-16;5.551115e-17;45;0;7.401487e-17;7.401487e-17;-1.110223e-16;-2.633872e-20;0;0;2.633872e-20;0.816463;-1.110223e-16;1.110223e-16;0
4.304455;-44.917763;0.802697;0;0;0;0;0;-2.220446e-16;-3.067616e-17;0;0;0;0;4.160068e-18;-2.262047e-16;1.151824e-16;45;0;1.535765e-16;1.522088e-16;0;-6.104365e-17;-3.086759e-19;-2.220446e-16;6.073497e-17;0.784091;-2.220446e-16;2.220446e-16;0
5.917441;-44.917763;0.712644;0;0;0;0;0;0;-3.010955e-17;0;0;0;0;3.010955e-17;-3.010955e-17;3.010955e-17;45;0;4.014606e-17;3.476751e-17;0;-6.021909e-17;0;0;6.021909e-17;0.699854;0;0;0
7.530427;-44.917763;0.584219;0;0;0;0;-1.110223e-16;0;6.041202e-17;0;0;0;0;2.653213e-17;-1.375544e-16;8.204328e-17;45;0;1.09391e-16;1.017072e-16;-1.110223e-16;1.20824e-16;0;0;-1.20824e-16;0.575825;-1.110223e-16;1.110223e-16;0
9.143413;-44.917763;0.430611;0;0;0;0;-1.110223e-16;0;-8.437898e-19;0;0;0;0;6.412586e-21;-1.110287e-16;5.551756e-17;45;0;7.402342e-17;7.402128e-17;-1.110223e-16;-1.68758e-18;0;0;1.68758e-18;0.412804;-1.110223e-16;1.110223e-16;0
10.756399;-44.917763;0.223582;0;0;0;0;0;0;-1.009271e-18;0;0;0;0;1.009271e-18;-1.009271e-18;1.009271e-18;45;0;1.345695e-18;1.165406e-18;0;-2.018542e-18;0;0;2.018542e-18;0.206521;0;0;0
12.369385;-44.917763;-0.034631;0;0;0;0;0;0;0;0;0;0;0;0;0;0;45;0;0;0;0;0;0;0;0;-0.046746;0;0;0
13.982371;-44.917763;-0.329188;0;0;0;0;0;2.220446e-16;-3.001149e-17;0;0;0;0;2.260294e-16;-3.984834e-18;1.150071e-16;45;0;1.533428e-16;1.52032e-16;0;-6.123597e-17;1.212985e-18;2.220446e-16;6.244896e-17;-0.341357;2.220446e-16;-2.220446e-16;0
15.595357;-44.917763;-0.660252;0;0;0;0;0;0;-3.063037e-17;0;0;0;0;3.063037e-17;-3.063037e-17;3.063037e-17;45;0;4.084049e-17;3.53689e-17;0;-6.126073e-17;0;0;6.126073e-17;-0.674984;0;0;0
17.208343;-44.917763;-1.035513;0;0;0;0;0;-2.220446e-16;-3.184876e-17;0;0;0;0;4.477892e-18;-2.265225e-16;1.155002e-16;45;0;1.540003e-16;1.525295e-16;0;-6.130361e-17;-2.393905e-18;-2.220446e-16;5.89097e-17;-1.059954;-2.220446e-16;2.220446e-16;0
18.821329;-44.917763;-1.484098;0;0;0;0;-1.110223e-16;2.220446e-16;-6.184866e-18;0;0;0;0;2.221594e-16;-1.111371e-16;1.666483e-16;45;0;2.221977e-16;1.959551e-16;-1.110223e-16;-4.772439e-17;3.535466e-17;2.220446e-16;8.307904e-17;-1.500016;1.110223e-16;-1.110223e-16;0
20.434315;-44.917763;-1.976237;0;0;0;0;0;2.220446e-16;1.754938e-17;0;0;0;0;2.234231e-16;-1.378465e-18;1.124008e-16;45;0;1.498677e-16;1.494103e-16;0;0;3.509877e-17;2.220446e-16;3.509877e-17;-1.985263;2.220446e-16;-2.220446e-16;0
22.047301;-44.917763;-2.503444;0;0;0;0;0;2.220446e-16;-8.791496e-18;0;0;0;0;2.223922e-16;-3.475411e-19;1.113698e-16;45;0;1.484931e-16;1.483774e-16;0;-2.169652e-17;4.113524e-18;2.220446e-16;2.581004e-17;-2.519269;2.220446e-16;-2.220446e-16;0
23.660287;-44.917763;-3.075409;0;0;0;0;-1.110223e-16;-1.110223e-16;-1.559176e-17;0;0;0;0;-9.543054e-17;-1.266141e-16;1.559176e-17;45;0;2.078902e-17;7.617308e-17;-1.110223e-16;-2.710961e-17;-4.07392e-18;-1.110223e-16;2.303569e-17;-3.097581;-2.220446e-16;2.220446e-16;0
25.273273;-44.917763;-3.697627;0;0;0;0;-1.110223e-16;0;-2.710479e-18;0;0;0;0;6.613376e-20;-1.110884e-16;5.557729e-17;45;0;7.410305e-17;7.408101e-17;-1.110223e-16;-5.420958e-18;0;0;5.420958e-18;-3.726007;-1.110223e-16;1.110223e-16;0
26.886259;-44.917763;-4.381145;0;0;0;0;2.220446e-16;0;-8.131857e-18;0;0;0;0;2.22342e-16;-2.974116e-19;1.113197e-16;45;0;1.484263e-16;1.483272e-16;2.220446e-16;-1.626371e-17;0;0;1.626371e-17;-4.415376;2.220446e-16;-2.220446e-16;0
28.499246;-44.917763;-5.143103;0;0;0;0;2.220446e-16;0;-7.015025e-18;0;0;0;0;2.22266e-16;-2.21404e-19;1.112437e-16;45;0;1.483249e-16;1.482512e-16;2.220446e-16;-1.403005e-17;0;0;1.403005e-17;-5.158386;2.220446e-16;-2.220446e-16;0
30.112232;-44.917763;-5.941966;0;0;0;0;0;2.220446e-16;-3.1716e-17;0;0;0;0;2.26486e-16;-4.441356e-18;1.154637e-16;45;0;1.539515e-16;1.524927e-16;0;-4.688375e-17;-1.654825e-17;2.220446e-16;3.03355e-17;-5.963521;2.220446e-16;-2.220446e-16;0
31.725218;-44.917763;-6.788984;0;0;0;0;0;2.220446e-16;-2.815695e-17;0;0;0;0;2.255595e-16;-3.514878e-18;1.145372e-16;45;0;1.527162e-16;1.515582e-16;0;-6.063861e-17;4.324696e-18;2.220446e-16;6.49633e-17;-6.816682;2.220446e-16;-2.220446e-16;0
33.338204;-44.917763;-7.719096;0;0;0;0;0;0;3.503553e-17;0;0;0;0;3.503553e-17;-3.503553e-17;3.503553e-17;45;0;4.671404e-17;4.045554e-17;0;7.007105e-17;0;0;-7.007105e-17;-7.728647;0;0;0
34.95119;-44.917763;-8.677861;0;0;0;0;0;-4.440892e-16;5.817001e-17;0;0;0;0;7.493098e-18;-4.515823e-16;2.295377e-16;45;0;3.060503e-16;3.035834e-16;0;6.393923e-17;5.24008e-17;-4.440892e-16;-1.153844e-17;-8.705225;-4.440892e-16;4.440892e-16;0
20.434315;-46.530749;-2.102893;0;0;0;0;0;0;-1.357108e-18;0;0;0;0;1.357108e-18;-1.357108e-18;1.357108e-18;45;0;1.809477e-18;1.567053e-18;0;-2.714216e-18;0;0;2.714216e-18;-2.10979;0;0;0
22.047301;-46.530749;-2.629808;0;0;0;0;2.220446e-16;-2.220446e-16;-3.079771e-17;0;0;0;0;2.241703e-16;-2.241703e-16;2.241703e-16;45;0;2.988937e-16;2.588495e-16;2.220446e-16;-5.92599e-17;-2.335523e-18;-2.220446e-16;5.692437e-17;-2.651895;0;0;0
23.660287;-46.530749;-3.222984;0;0;0;0;0;2.220446e-16;1.155469e-18;0;0;0;0;2.220506e-16;-6.012636e-21;1.110283e-16;45;0;1.480377e-16;1.480357e-16;0;0;2.310939e-18;2.220446e-16;2.310939e-18;-3.237686;2.220446e-16;-2.220446e-16;0
25.273273;-46.530749;-3.860264;0;0;0;0;0;0;6.054347e-17;0;0;0;0;6.054347e-17;-6.054347e-17;6.054347e-17;45;0;8.072462e-17;6.990957e-17;0;1.210869e-16;0;0;-1.210869e-16;-3.872375;0;0;0
26.886259;-46.530749;-4.533875;0;0;0;0;-1.110223e-16;2.220446e-16;-3.140572e-17;0;0;0;0;2.249801e-16;-1.139578e-16;1.694689e-16;45;0;2.259585e-16;1.991545e-16;-1.110223e-16;-6.731763e-17;4.506192e-18;2.220446e-16;7.182383e-17;-4.568962;1.110223e-16;-1.110223e-16;0
28.499246;-46.530749;-5.312748;0;0;0;0;-2.220446e-16;0;2.647944e-17;0;0;0;0;3.114075e-18;-2.251587e-16;1.141364e-16;45;0;1.521818e-16;1.511545e-16;-2.220446e-16;5.295889e-17;0;0;-5.295889e-17;-5.313363;-2.220446e-16;2.220446e-16;0
